Ba1 Ti1 O3
1.0
3.953265 0.000000 0.000000
0.000000 3.953265 0.000000
0.000000 0.000000 3.970536
Ba Ti O
1 1 3
direct
0.000000 0.000000 0.000000 Ba
0.500000 0.499994 0.507648 Ti
0.000000 0.499994 0.492092 O
0.500000 0.000000 0.492092 O
0.500000 0.499994 0.988961 O
