generated by phonopy                    
   1.00000000000000     
     5.1075918513897252    0.0000000000000000    0.0000000000000000
    -2.5537959256948626    4.4233042733132315    0.0000000000000000
     0.0000000000000000    0.0000000000000000   13.9171745531496978
   Li   Nb   O 
     6     6    18
Direct
  0.6666669999999968  0.3333330000000032  0.0504453714504279
  0.0000000000000000 -0.0000000000000000  0.2171123714504317
  0.3333330000000032  0.6666669999999968  0.3837793714504286
  0.6666669999999968  0.3333330000000032  0.5504453714504278
  0.0000000000000000 -0.0000000000000000  0.7171123714504317
  0.3333330000000032  0.6666669999999968  0.8837793714504285
  0.6666669999999968  0.3333330000000032  0.3344503524393972
  0.3333330000000032  0.6666669999999968  0.1677843524393979
  0.3333330000000032  0.6666669999999968  0.6677843524393982
  0.0000000000000000 -0.0000000000000000  0.5011173524394014
  0.0000000000000000 -0.0000000000000000  0.0011173524394011
  0.6666669999999968  0.3333330000000032  0.8344503524393975
  0.6243067352969258  0.9870390702348769  0.2693897587033907
  0.0129609297653859  0.6372666650610707  0.2693897587033907
  0.3627333349376860  0.3756932647040550  0.2693897587033907
  0.0293993349379482  0.3203730702348777  0.1027237587033843
  0.6796269297663659  0.7090272647040554  0.1027237587033843
  0.2909727352956814  0.9706006650610713  0.1027237587033843
  0.2909727352969249  0.3203730702348777  0.6027237587033842
  0.6796269297653853  0.9706006650610713  0.6027237587033842
  0.0293993349376853  0.7090272647040554  0.6027237587033842
  0.6960663349379520  0.6537060702348737  0.4360567587033874
  0.3462939297663696  0.0423602647040517  0.4360567587033874
  0.9576397352956856  0.3039336650610673  0.4360567587033874
  0.9576397352969290  0.6537060702348737  0.9360567587033874
  0.3462939297653891  0.3039336650610673  0.9360567587033874
  0.6960663349376891  0.0423602647040517  0.9360567587033874
  0.3627333349379489  0.9870390702348769  0.7693897587033907
  0.0129609297663664  0.3756932647040550  0.7693897587033907
  0.6243067352956824  0.6372666650610707  0.7693897587033907
 
  0.00000000E+00  0.00000000E+00  0.00000000E+00
  0.00000000E+00  0.00000000E+00  0.00000000E+00
  0.00000000E+00  0.00000000E+00  0.00000000E+00
  0.00000000E+00  0.00000000E+00  0.00000000E+00
  0.00000000E+00  0.00000000E+00  0.00000000E+00
  0.00000000E+00  0.00000000E+00  0.00000000E+00
  0.00000000E+00  0.00000000E+00  0.00000000E+00
  0.00000000E+00  0.00000000E+00  0.00000000E+00
  0.00000000E+00  0.00000000E+00  0.00000000E+00
  0.00000000E+00  0.00000000E+00  0.00000000E+00
  0.00000000E+00  0.00000000E+00  0.00000000E+00
  0.00000000E+00  0.00000000E+00  0.00000000E+00
  0.00000000E+00  0.00000000E+00  0.00000000E+00
  0.00000000E+00  0.00000000E+00  0.00000000E+00
  0.00000000E+00  0.00000000E+00  0.00000000E+00
  0.00000000E+00  0.00000000E+00  0.00000000E+00
  0.00000000E+00  0.00000000E+00  0.00000000E+00
  0.00000000E+00  0.00000000E+00  0.00000000E+00
  0.00000000E+00  0.00000000E+00  0.00000000E+00
  0.00000000E+00  0.00000000E+00  0.00000000E+00
  0.00000000E+00  0.00000000E+00  0.00000000E+00
  0.00000000E+00  0.00000000E+00  0.00000000E+00
  0.00000000E+00  0.00000000E+00  0.00000000E+00
  0.00000000E+00  0.00000000E+00  0.00000000E+00
  0.00000000E+00  0.00000000E+00  0.00000000E+00
  0.00000000E+00  0.00000000E+00  0.00000000E+00
  0.00000000E+00  0.00000000E+00  0.00000000E+00
  0.00000000E+00  0.00000000E+00  0.00000000E+00
  0.00000000E+00  0.00000000E+00  0.00000000E+00
  0.00000000E+00  0.00000000E+00  0.00000000E+00
