generated by phonopy                    
   1.00000000000000     
     5.1075918513897252    0.0000000000000000    0.0000000000000000
    -2.5537959300000002    4.4230831100000003    0.0442323100000000
     0.0000000000000000    0.1381334300000000   13.8128820799999996
   Li   Nb   O 
     6     6    18
Direct
  0.6665265512730827  0.3332094659946295  0.0505821088624864
  0.0000169147215404 -0.0001235340053737  0.2172491088624904
  0.3331925512730892  0.6665434659946231  0.3839161088624871
  0.6666839147215373  0.3332094659946295  0.5505821088624864
 -0.0001404487269141 -0.0001235340053737  0.7172491088624903
  0.3333499147215437  0.6665434659946231  0.8839161088624871
  0.6660082130480203  0.3289856591554792  0.3343544418170822
  0.3296444461074556  0.6623196591554726  0.1676884418170828
  0.3326742130480267  0.6623196591554726  0.6676884418170830
 -0.0036885538925474 -0.0043473408445240  0.5010214418170862
 -0.0006587869519766 -0.0043473408445240  0.0010214418170861
  0.6629784461074493  0.3289856591554792  0.8343544418170823
  0.6248969745363128  0.9890360380101135  0.2687479033349051
  0.0143539098585992  0.6401395028358843  0.2690133867240480
  0.3603592670910144  0.3752943340039024  0.2703671592614756
  0.0308060634737975  0.3223700380101142  0.1020819033348985
  0.6816020669128848  0.7086283340039031  0.1037011592614692
  0.2924525929772818  0.9734735028358850  0.1023473867240415
  0.2915629745363121  0.3223700380101142  0.6020819033348986
  0.6810199098585986  0.9734735028358850  0.6023473867240413
  0.0270252670910137  0.7086283340039031  0.6037011592614696
  0.6974730634738017  0.6557030380101103  0.4354149033349019
  0.3482690669128888  0.0419613340038992  0.4370341592614724
  0.9591195929772858  0.3068065028358811  0.4356803867240448
  0.9582299745363160  0.6557030380101103  0.9354149033349018
  0.3476869098586023  0.3068065028358811  0.9356803867240445
  0.6936922670910175  0.0419613340038992  0.9370341592614728
  0.3641400634737982  0.9890360380101135  0.7687479033349051
  0.0149360669128855  0.3752943340039024  0.7703671592614760
  0.6257865929772826  0.6401395028358843  0.7690133867240477
 
  0.00000000E+00  0.00000000E+00  0.00000000E+00
  0.00000000E+00  0.00000000E+00  0.00000000E+00
  0.00000000E+00  0.00000000E+00  0.00000000E+00
  0.00000000E+00  0.00000000E+00  0.00000000E+00
  0.00000000E+00  0.00000000E+00  0.00000000E+00
  0.00000000E+00  0.00000000E+00  0.00000000E+00
  0.00000000E+00  0.00000000E+00  0.00000000E+00
  0.00000000E+00  0.00000000E+00  0.00000000E+00
  0.00000000E+00  0.00000000E+00  0.00000000E+00
  0.00000000E+00  0.00000000E+00  0.00000000E+00
  0.00000000E+00  0.00000000E+00  0.00000000E+00
  0.00000000E+00  0.00000000E+00  0.00000000E+00
  0.00000000E+00  0.00000000E+00  0.00000000E+00
  0.00000000E+00  0.00000000E+00  0.00000000E+00
  0.00000000E+00  0.00000000E+00  0.00000000E+00
  0.00000000E+00  0.00000000E+00  0.00000000E+00
  0.00000000E+00  0.00000000E+00  0.00000000E+00
  0.00000000E+00  0.00000000E+00  0.00000000E+00
  0.00000000E+00  0.00000000E+00  0.00000000E+00
  0.00000000E+00  0.00000000E+00  0.00000000E+00
  0.00000000E+00  0.00000000E+00  0.00000000E+00
  0.00000000E+00  0.00000000E+00  0.00000000E+00
  0.00000000E+00  0.00000000E+00  0.00000000E+00
  0.00000000E+00  0.00000000E+00  0.00000000E+00
  0.00000000E+00  0.00000000E+00  0.00000000E+00
  0.00000000E+00  0.00000000E+00  0.00000000E+00
  0.00000000E+00  0.00000000E+00  0.00000000E+00
  0.00000000E+00  0.00000000E+00  0.00000000E+00
  0.00000000E+00  0.00000000E+00  0.00000000E+00
  0.00000000E+00  0.00000000E+00  0.00000000E+00
