generated by phonopy                    
   1.00000000000000     
     5.2097436884175199    0.0000000000000000    0.0000000000000000
    -2.5537959256948626    4.4233042733132315    0.0000000000000000
     0.0000000000000000    0.0000000000000000   13.8135727574686822
   Li   Nb   O 
     6     6    18
Direct
  0.6675188940174598  0.3319596342788310  0.0514418586494624
 -0.0012765672837240  0.0011599187860386  0.2181350394049870
  0.3341848940174661  0.6652936342788244  0.3847758586494633
  0.6653904327162727  0.3344929187860418  0.5514680394049828
  0.0008518940174630 -0.0013733657211724  0.7181088586494662
  0.3320564327162792  0.6678269187860357  0.8848020394049835
  0.6692145293565677  0.3387112301560560  0.3342251095109425
  0.3386042314231106  0.6692703545249943  0.1675590943913215
  0.3358805293565740  0.6720452301560496  0.6675591095109433
  0.0052712314231073  0.0026033545249975  0.5008920943913245
  0.0025475293565706  0.0053782301560528  0.0008921095109462
  0.6719382314231040  0.3359363545250006  0.8342250943913206
  0.6187257181364143  0.9854199406530737  0.2694723265432140
  0.0104216501828424  0.6334278125970234  0.2681077025095256
  0.3664169834010971  0.3779264994853480  0.2698101412514730
  0.0331234186857746  0.3192563808492428  0.1035582101623798
  0.6765953667555786  0.7097088284036924  0.1021760373794098
  0.2873227753248693  0.9664924002657094  0.1016474801972643
  0.2853917181364133  0.3187539406530744  0.6028063265432074
  0.6770876501828418  0.9667618125970241  0.6014417025095189
  0.0330829834010965  0.7112604994853489  0.6031441412514666
  0.6997904186857781  0.6525893808492393  0.4368912101623832
  0.3432623667555822  0.0430418284036887  0.4355090373794132
  0.9539897753248732  0.2998254002657053  0.4349804801972675
  0.9520587181364175  0.6520869406530705  0.9361393265432106
  0.3437546501828457  0.3000948125970204  0.9347747025095221
  0.6997499834011006  0.0445934994853448  0.9364771412514699
  0.3664574186857755  0.9859223808492426  0.7702242101623861
  0.0099293667555792  0.3763748284036921  0.7688420373794163
  0.6206567753248700  0.6331584002657087  0.7683134801972709
 
  0.00000000E+00  0.00000000E+00  0.00000000E+00
  0.00000000E+00  0.00000000E+00  0.00000000E+00
  0.00000000E+00  0.00000000E+00  0.00000000E+00
  0.00000000E+00  0.00000000E+00  0.00000000E+00
  0.00000000E+00  0.00000000E+00  0.00000000E+00
  0.00000000E+00  0.00000000E+00  0.00000000E+00
  0.00000000E+00  0.00000000E+00  0.00000000E+00
  0.00000000E+00  0.00000000E+00  0.00000000E+00
  0.00000000E+00  0.00000000E+00  0.00000000E+00
  0.00000000E+00  0.00000000E+00  0.00000000E+00
  0.00000000E+00  0.00000000E+00  0.00000000E+00
  0.00000000E+00  0.00000000E+00  0.00000000E+00
  0.00000000E+00  0.00000000E+00  0.00000000E+00
  0.00000000E+00  0.00000000E+00  0.00000000E+00
  0.00000000E+00  0.00000000E+00  0.00000000E+00
  0.00000000E+00  0.00000000E+00  0.00000000E+00
  0.00000000E+00  0.00000000E+00  0.00000000E+00
  0.00000000E+00  0.00000000E+00  0.00000000E+00
  0.00000000E+00  0.00000000E+00  0.00000000E+00
  0.00000000E+00  0.00000000E+00  0.00000000E+00
  0.00000000E+00  0.00000000E+00  0.00000000E+00
  0.00000000E+00  0.00000000E+00  0.00000000E+00
  0.00000000E+00  0.00000000E+00  0.00000000E+00
  0.00000000E+00  0.00000000E+00  0.00000000E+00
  0.00000000E+00  0.00000000E+00  0.00000000E+00
  0.00000000E+00  0.00000000E+00  0.00000000E+00
  0.00000000E+00  0.00000000E+00  0.00000000E+00
  0.00000000E+00  0.00000000E+00  0.00000000E+00
  0.00000000E+00  0.00000000E+00  0.00000000E+00
  0.00000000E+00  0.00000000E+00  0.00000000E+00
