generated by phonopy                    
   1.00000000000000     
     5.1842057291605705    0.0000000000000000    0.0000000000000000
    -2.5537959256948626    4.4233042733132315    0.0000000000000000
     0.0000000000000000    0.0000000000000000   13.8135727574686822
   Li   Nb   O 
     6     6    18
Direct
  0.6673090341175364  0.3322536620870049  0.0512965096607138
 -0.0010378087098601  0.0008059745224293  0.2179725287598383
  0.3339750341175428  0.6655876620869982  0.3846305096607145
  0.6656291912901366  0.3341389745224325  0.5513055287598342
  0.0006420341175396 -0.0010793379129984  0.7179635096607176
  0.3322951912901432  0.6674729745224260  0.8846395287598349
  0.6685754849698040  0.3373545593489876  0.3342621194361356
  0.3372998033640919  0.6686044662280971  0.1675971781497515
  0.3352414849698109  0.6706885593489812  0.6675961194361364
  0.0039668033640887  0.0019374662281006  0.5009301781497546
  0.0019084849698076  0.0040215593489845  0.0009291194361396
  0.6706338033640857  0.3352704662281037  0.8342631781497507
  0.6204020524744996  0.9857708924472773  0.2694135195686724
  0.0112533253165445  0.6346526055243308  0.2684194173099019
  0.3651843024085600  0.3771072455571789  0.2696703972432776
  0.0318732989836628  0.3195710241357809  0.1032900784239852
  0.6774685183796837  0.7093664185971422  0.1022832664986789
  0.2883389886954662  0.9678461515517806  0.1019279849490241
  0.2870680524744989  0.3191048924472784  0.6027475195686663
  0.6779193253165441  0.9679866055243315  0.6017534173098951
  0.0318503024085594  0.7104412455571794  0.6030043972432716
  0.6985402989836670  0.6529040241357771  0.4366230784239886
  0.3441355183796875  0.0426994185971386  0.4356162664986818
  0.9550059886954703  0.3011791515517767  0.4352609849490275
  0.9537350524745029  0.6524378924472741  0.9360805195686696
  0.3445863253165478  0.3013196055243274  0.9350864173098983
  0.6985173024085634  0.0437742455571756  0.9363373972432748
  0.3652072989836634  0.9862370241357803  0.7699560784239916
  0.0108025183796843  0.3760324185971418  0.7689492664986851
  0.6216729886954671  0.6345121515517799  0.7685939849490305
 
  0.00000000E+00  0.00000000E+00  0.00000000E+00
  0.00000000E+00  0.00000000E+00  0.00000000E+00
  0.00000000E+00  0.00000000E+00  0.00000000E+00
  0.00000000E+00  0.00000000E+00  0.00000000E+00
  0.00000000E+00  0.00000000E+00  0.00000000E+00
  0.00000000E+00  0.00000000E+00  0.00000000E+00
  0.00000000E+00  0.00000000E+00  0.00000000E+00
  0.00000000E+00  0.00000000E+00  0.00000000E+00
  0.00000000E+00  0.00000000E+00  0.00000000E+00
  0.00000000E+00  0.00000000E+00  0.00000000E+00
  0.00000000E+00  0.00000000E+00  0.00000000E+00
  0.00000000E+00  0.00000000E+00  0.00000000E+00
  0.00000000E+00  0.00000000E+00  0.00000000E+00
  0.00000000E+00  0.00000000E+00  0.00000000E+00
  0.00000000E+00  0.00000000E+00  0.00000000E+00
  0.00000000E+00  0.00000000E+00  0.00000000E+00
  0.00000000E+00  0.00000000E+00  0.00000000E+00
  0.00000000E+00  0.00000000E+00  0.00000000E+00
  0.00000000E+00  0.00000000E+00  0.00000000E+00
  0.00000000E+00  0.00000000E+00  0.00000000E+00
  0.00000000E+00  0.00000000E+00  0.00000000E+00
  0.00000000E+00  0.00000000E+00  0.00000000E+00
  0.00000000E+00  0.00000000E+00  0.00000000E+00
  0.00000000E+00  0.00000000E+00  0.00000000E+00
  0.00000000E+00  0.00000000E+00  0.00000000E+00
  0.00000000E+00  0.00000000E+00  0.00000000E+00
  0.00000000E+00  0.00000000E+00  0.00000000E+00
  0.00000000E+00  0.00000000E+00  0.00000000E+00
  0.00000000E+00  0.00000000E+00  0.00000000E+00
  0.00000000E+00  0.00000000E+00  0.00000000E+00
