generated by phonopy                    
   1.00000000000000     
     5.1586677699036221    0.0000000000000000    0.0000000000000000
    -2.5537959256948626    4.4233042733132315    0.0000000000000000
     0.0000000000000000    0.0000000000000000   13.8135727574686822
   Li   Nb   O 
     6     6    18
Direct
  0.6670875543644652  0.3325824816852814  0.0510978869867773
 -0.0007493718504436  0.0004782803620733  0.2177683389000570
  0.3337535543644720  0.6659164816852752  0.3844318869867779
  0.6659176281495531  0.3338112803620765  0.5511013389000534
  0.0004205543644688 -0.0007505183147217  0.7177648869867812
  0.3325836281495597  0.6671452803620701  0.8844353389000541
  0.6679395013413648  0.3360094335629724  0.3343009887348131
  0.3359811360634511  0.6679496152035723  0.1676367195939623
  0.3346055013413711  0.6693434335629664  0.6676349887348134
  0.0026481360634478  0.0012826152035757  0.5009697195939657
  0.0012725013413678  0.0026764335629693  0.0009679887348169
  0.6693151360634445  0.3346156152035790  0.8343027195939619
  0.6220109011988741  0.9860860200151188  0.2693810405020819
  0.0120216691562151  0.6358983519715258  0.2687276397500976
  0.3639645546950959  0.3763519747346031  0.2695544979945041
  0.0306417769165470  0.3197748973707223  0.1030648265680727
  0.6783425866170451  0.7090270418102331  0.1024100008817475
  0.2894266914973748  0.9691749032839077  0.1021910600878661
  0.2886769011988738  0.3194200200151195  0.6027150405020754
  0.6786876691562144  0.9692323519715265  0.6020616397500909
  0.0306305546950952  0.7096859747346037  0.6028884979944981
  0.6973087769165510  0.6531078973707181  0.4363978265680760
  0.3450095866170489  0.0423600418102293  0.4357430008817507
  0.9560936914973789  0.3025079032839035  0.4355240600878693
  0.9553439011988774  0.6527530200151156  0.9360480405020786
  0.3453546691562183  0.3025653519715224  0.9353946397500941
  0.6972975546950990  0.0430189747345999  0.9362214979945013
  0.3639757769165477  0.9864408973707213  0.7697308265680792
  0.0116765866170456  0.3756930418102325  0.7690760008817540
  0.6227606914973757  0.6358409032839070  0.7688570600878725
 
  0.00000000E+00  0.00000000E+00  0.00000000E+00
  0.00000000E+00  0.00000000E+00  0.00000000E+00
  0.00000000E+00  0.00000000E+00  0.00000000E+00
  0.00000000E+00  0.00000000E+00  0.00000000E+00
  0.00000000E+00  0.00000000E+00  0.00000000E+00
  0.00000000E+00  0.00000000E+00  0.00000000E+00
  0.00000000E+00  0.00000000E+00  0.00000000E+00
  0.00000000E+00  0.00000000E+00  0.00000000E+00
  0.00000000E+00  0.00000000E+00  0.00000000E+00
  0.00000000E+00  0.00000000E+00  0.00000000E+00
  0.00000000E+00  0.00000000E+00  0.00000000E+00
  0.00000000E+00  0.00000000E+00  0.00000000E+00
  0.00000000E+00  0.00000000E+00  0.00000000E+00
  0.00000000E+00  0.00000000E+00  0.00000000E+00
  0.00000000E+00  0.00000000E+00  0.00000000E+00
  0.00000000E+00  0.00000000E+00  0.00000000E+00
  0.00000000E+00  0.00000000E+00  0.00000000E+00
  0.00000000E+00  0.00000000E+00  0.00000000E+00
  0.00000000E+00  0.00000000E+00  0.00000000E+00
  0.00000000E+00  0.00000000E+00  0.00000000E+00
  0.00000000E+00  0.00000000E+00  0.00000000E+00
  0.00000000E+00  0.00000000E+00  0.00000000E+00
  0.00000000E+00  0.00000000E+00  0.00000000E+00
  0.00000000E+00  0.00000000E+00  0.00000000E+00
  0.00000000E+00  0.00000000E+00  0.00000000E+00
  0.00000000E+00  0.00000000E+00  0.00000000E+00
  0.00000000E+00  0.00000000E+00  0.00000000E+00
  0.00000000E+00  0.00000000E+00  0.00000000E+00
  0.00000000E+00  0.00000000E+00  0.00000000E+00
  0.00000000E+00  0.00000000E+00  0.00000000E+00
