generated by phonopy                    
   1.00000000000000     
     5.1075918513897252    0.0000000000000000    0.0000000000000000
    -2.5537959256948626    4.4233042733132315    0.0000000000000000
     0.0000000000000000    0.0000000000000000   14.1589120764053984
   Li   Nb   O 
     6     6    18
Direct
  0.6666669999999968  0.3333330000000032  0.0498461502696579
 -0.0000000000000000 -0.0000000000000000  0.2165131502696618
  0.3333330000000032  0.6666669999999968  0.3831801502696586
  0.6666669999999968  0.3333330000000032  0.5498461502696578
 -0.0000000000000000 -0.0000000000000000  0.7165131502696617
  0.3333330000000032  0.6666669999999968  0.8831801502696585
  0.6666669999999968  0.3333330000000032  0.3345092005131670
  0.3333330000000032  0.6666669999999968  0.1678432005131676
  0.3333330000000032  0.6666669999999968  0.6678432005131678
 -0.0000000000000000 -0.0000000000000000  0.5011762005131710
 -0.0000000000000000 -0.0000000000000000  0.0011762005131709
  0.6666669999999968  0.3333330000000032  0.8345092005131671
  0.6225532661928110  0.9879368339315987  0.2695698830723909
  0.0120631660686640  0.6346154322602341  0.2695698830723909
  0.3653845677385225  0.3774467338081694  0.2695698830723909
  0.0320505677387846  0.3212708339315995  0.1029038830723844
  0.6787291660696441  0.7107807338081702  0.1029038830723844
  0.2892192661915670  0.9679494322602348  0.1029038830723844
  0.2892192661928105  0.3212708339315995  0.6029038830723842
  0.6787291660686635  0.9679494322602348  0.6029038830723842
  0.0320505677385217  0.7107807338081702  0.6029038830723842
  0.6987175677387886  0.6546038339315955  0.4362368830723877
  0.3453961660696478  0.0441137338081662  0.4362368830723877
  0.9558862661915708  0.3012824322602309  0.4362368830723877
  0.9558862661928142  0.6546038339315955  0.9362368830723874
  0.3453961660686673  0.3012824322602309  0.9362368830723874
  0.6987175677385257  0.0441137338081662  0.9362368830723874
  0.3653845677387854  0.9879368339315987  0.7695698830723906
  0.0120631660696446  0.3774467338081694  0.7695698830723906
  0.6225532661915676  0.6346154322602341  0.7695698830723906
 
  0.00000000E+00  0.00000000E+00  0.00000000E+00
  0.00000000E+00  0.00000000E+00  0.00000000E+00
  0.00000000E+00  0.00000000E+00  0.00000000E+00
  0.00000000E+00  0.00000000E+00  0.00000000E+00
  0.00000000E+00  0.00000000E+00  0.00000000E+00
  0.00000000E+00  0.00000000E+00  0.00000000E+00
  0.00000000E+00  0.00000000E+00  0.00000000E+00
  0.00000000E+00  0.00000000E+00  0.00000000E+00
  0.00000000E+00  0.00000000E+00  0.00000000E+00
  0.00000000E+00  0.00000000E+00  0.00000000E+00
  0.00000000E+00  0.00000000E+00  0.00000000E+00
  0.00000000E+00  0.00000000E+00  0.00000000E+00
  0.00000000E+00  0.00000000E+00  0.00000000E+00
  0.00000000E+00  0.00000000E+00  0.00000000E+00
  0.00000000E+00  0.00000000E+00  0.00000000E+00
  0.00000000E+00  0.00000000E+00  0.00000000E+00
  0.00000000E+00  0.00000000E+00  0.00000000E+00
  0.00000000E+00  0.00000000E+00  0.00000000E+00
  0.00000000E+00  0.00000000E+00  0.00000000E+00
  0.00000000E+00  0.00000000E+00  0.00000000E+00
  0.00000000E+00  0.00000000E+00  0.00000000E+00
  0.00000000E+00  0.00000000E+00  0.00000000E+00
  0.00000000E+00  0.00000000E+00  0.00000000E+00
  0.00000000E+00  0.00000000E+00  0.00000000E+00
  0.00000000E+00  0.00000000E+00  0.00000000E+00
  0.00000000E+00  0.00000000E+00  0.00000000E+00
  0.00000000E+00  0.00000000E+00  0.00000000E+00
  0.00000000E+00  0.00000000E+00  0.00000000E+00
  0.00000000E+00  0.00000000E+00  0.00000000E+00
  0.00000000E+00  0.00000000E+00  0.00000000E+00
