generated by phonopy                    
   1.00000000000000     
     5.1075918513897252    0.0000000000000000    0.0000000000000000
    -2.5537959256948626    4.4233042733132315    0.0000000000000000
     0.0000000000000000    0.0000000000000000   13.8826406212560247
   Li   Nb   O 
     6     6    18
Direct
  0.6666669999999968  0.3333330000000032  0.0504951121336702
 -0.0000000000000000  0.0000000000000000  0.2171621121336741
  0.3333330000000032  0.6666669999999968  0.3838291121336709
  0.6666669999999968  0.3333330000000032  0.5504951121336704
 -0.0000000000000000  0.0000000000000000  0.7171621121336743
  0.3333330000000032  0.6666669999999968  0.8838291121336711
  0.6666669999999968  0.3333330000000032  0.3344322062936221
  0.3333330000000032  0.6666669999999968  0.1677662062936227
  0.3333330000000032  0.6666669999999968  0.6677662062936226
  0.0000000000000000  0.0000000000000000  0.5010992062936258
  0.0000000000000000  0.0000000000000000  0.0010992062936259
  0.6666669999999968  0.3333330000000032  0.8344322062936219
  0.6245651643064354  0.9869061969764673  0.2693792271909016
  0.0130938030237956  0.6376579673289896  0.2693792271909016
  0.3623420326697670  0.3754348356945458  0.2693792271909016
  0.0290080326700292  0.3202401969764681  0.1027132271908952
  0.6797598030247755  0.7087688356945459  0.1027132271908952
  0.2912311643051906  0.9709919673289903  0.1027132271908952
  0.2912311643064341  0.3202401969764681  0.6027132271908952
  0.6797598030237949  0.9709919673289903  0.6027132271908952
  0.0290080326697663  0.7087688356945459  0.6027132271908952
  0.6956750326700331  0.6535731969764641  0.4360462271908984
  0.3464268030247792  0.0421018356945425  0.4360462271908984
  0.9578981643051951  0.3043249673289863  0.4360462271908984
  0.9578981643064386  0.6535731969764641  0.9360462271908984
  0.3464268030237987  0.3043249673289863  0.9360462271908984
  0.6956750326697702  0.0421018356945425  0.9360462271908984
  0.3623420326700299  0.9869061969764673  0.7693792271909016
  0.0130938030247761  0.3754348356945458  0.7693792271909016
  0.6245651643051919  0.6376579673289896  0.7693792271909016
 
  0.00000000E+00  0.00000000E+00  0.00000000E+00
  0.00000000E+00  0.00000000E+00  0.00000000E+00
  0.00000000E+00  0.00000000E+00  0.00000000E+00
  0.00000000E+00  0.00000000E+00  0.00000000E+00
  0.00000000E+00  0.00000000E+00  0.00000000E+00
  0.00000000E+00  0.00000000E+00  0.00000000E+00
  0.00000000E+00  0.00000000E+00  0.00000000E+00
  0.00000000E+00  0.00000000E+00  0.00000000E+00
  0.00000000E+00  0.00000000E+00  0.00000000E+00
  0.00000000E+00  0.00000000E+00  0.00000000E+00
  0.00000000E+00  0.00000000E+00  0.00000000E+00
  0.00000000E+00  0.00000000E+00  0.00000000E+00
  0.00000000E+00  0.00000000E+00  0.00000000E+00
  0.00000000E+00  0.00000000E+00  0.00000000E+00
  0.00000000E+00  0.00000000E+00  0.00000000E+00
  0.00000000E+00  0.00000000E+00  0.00000000E+00
  0.00000000E+00  0.00000000E+00  0.00000000E+00
  0.00000000E+00  0.00000000E+00  0.00000000E+00
  0.00000000E+00  0.00000000E+00  0.00000000E+00
  0.00000000E+00  0.00000000E+00  0.00000000E+00
  0.00000000E+00  0.00000000E+00  0.00000000E+00
  0.00000000E+00  0.00000000E+00  0.00000000E+00
  0.00000000E+00  0.00000000E+00  0.00000000E+00
  0.00000000E+00  0.00000000E+00  0.00000000E+00
  0.00000000E+00  0.00000000E+00  0.00000000E+00
  0.00000000E+00  0.00000000E+00  0.00000000E+00
  0.00000000E+00  0.00000000E+00  0.00000000E+00
  0.00000000E+00  0.00000000E+00  0.00000000E+00
  0.00000000E+00  0.00000000E+00  0.00000000E+00
  0.00000000E+00  0.00000000E+00  0.00000000E+00
