generated by phonopy                    
   1.00000000000000     
     5.1075918513897252    0.0000000000000000    0.0000000000000000
    -2.5537959256948626    4.4233042733132315    0.0000000000000000
     0.0000000000000000    0.0000000000000000   14.0207763488307116
   Li   Nb   O 
     6     6    18
Direct
  0.6666669999999968  0.3333330000000032  0.0501780073329412
  0.0000000000000000  0.0000000000000000  0.2168450073329451
  0.3333330000000032  0.6666669999999968  0.3835120073329418
  0.6666669999999968  0.3333330000000032  0.5501780073329410
  0.0000000000000000  0.0000000000000000  0.7168450073329449
  0.3333330000000032  0.6666669999999968  0.8835120073329417
  0.6666669999999968  0.3333330000000032  0.3345006447570478
  0.3333330000000032  0.6666669999999968  0.1678346447570487
  0.3333330000000032  0.6666669999999968  0.6678346447570488
  0.0000000000000000  0.0000000000000000  0.5011676447570520
  0.0000000000000000  0.0000000000000000  0.0011676447570518
  0.6666669999999968  0.3333330000000032  0.8345006447570481
  0.6235637945482720  0.9874511153654010  0.2694621159700026
  0.0125488846348620  0.6361116791818929  0.2694621159700026
  0.3638883208168637  0.3764362054527087  0.2694621159700026
  0.0305543208171258  0.3207851153654017  0.1027961159699963
  0.6792148846358418  0.7097702054527092  0.1027961159699963
  0.2902297945470277  0.9694456791818936  0.1027961159699963
  0.2902297945482712  0.3207851153654017  0.6027961159699963
  0.6792148846348612  0.9694456791818936  0.6027961159699963
  0.0305543208168629  0.7097702054527092  0.6027961159699963
  0.6972213208171297  0.6541181153653978  0.4361291159699994
  0.3458818846358457  0.0431032054527054  0.4361291159699994
  0.9568967945470318  0.3027786791818897  0.4361291159699994
  0.9568967945482753  0.6541181153653978  0.9361291159699995
  0.3458818846348651  0.3027786791818897  0.9361291159699995
  0.6972213208168668  0.0431032054527054  0.9361291159699995
  0.3638883208171266  0.9874511153654010  0.7694621159700027
  0.0125488846358425  0.3764362054527087  0.7694621159700027
  0.6235637945470286  0.6361116791818929  0.7694621159700027
 
  0.00000000E+00  0.00000000E+00  0.00000000E+00
  0.00000000E+00  0.00000000E+00  0.00000000E+00
  0.00000000E+00  0.00000000E+00  0.00000000E+00
  0.00000000E+00  0.00000000E+00  0.00000000E+00
  0.00000000E+00  0.00000000E+00  0.00000000E+00
  0.00000000E+00  0.00000000E+00  0.00000000E+00
  0.00000000E+00  0.00000000E+00  0.00000000E+00
  0.00000000E+00  0.00000000E+00  0.00000000E+00
  0.00000000E+00  0.00000000E+00  0.00000000E+00
  0.00000000E+00  0.00000000E+00  0.00000000E+00
  0.00000000E+00  0.00000000E+00  0.00000000E+00
  0.00000000E+00  0.00000000E+00  0.00000000E+00
  0.00000000E+00  0.00000000E+00  0.00000000E+00
  0.00000000E+00  0.00000000E+00  0.00000000E+00
  0.00000000E+00  0.00000000E+00  0.00000000E+00
  0.00000000E+00  0.00000000E+00  0.00000000E+00
  0.00000000E+00  0.00000000E+00  0.00000000E+00
  0.00000000E+00  0.00000000E+00  0.00000000E+00
  0.00000000E+00  0.00000000E+00  0.00000000E+00
  0.00000000E+00  0.00000000E+00  0.00000000E+00
  0.00000000E+00  0.00000000E+00  0.00000000E+00
  0.00000000E+00  0.00000000E+00  0.00000000E+00
  0.00000000E+00  0.00000000E+00  0.00000000E+00
  0.00000000E+00  0.00000000E+00  0.00000000E+00
  0.00000000E+00  0.00000000E+00  0.00000000E+00
  0.00000000E+00  0.00000000E+00  0.00000000E+00
  0.00000000E+00  0.00000000E+00  0.00000000E+00
  0.00000000E+00  0.00000000E+00  0.00000000E+00
  0.00000000E+00  0.00000000E+00  0.00000000E+00
  0.00000000E+00  0.00000000E+00  0.00000000E+00
