generated by phonopy                    
   1.00000000000000     
     5.1331298106466736    0.0000000000000000    0.0000000000000000
    -2.5537959256948626    4.4233042733132315    0.0000000000000000
     0.0000000000000000    0.0000000000000000   13.8135727574686822
   Li   Nb   O 
     6     6    18
Direct
  0.6668378222564214  0.3329373014545728  0.0508892265703377
 -0.0003977372777022  0.0001838947683104  0.2175565169891306
  0.3335038222564273  0.6662713014545663  0.3842232265703384
  0.6662692627222947  0.3335168947683135  0.5508895169891262
  0.0001708222564243 -0.0003956985454304  0.7175562265703416
  0.3329352627223010  0.6668508947683073  0.8842235169891269
  0.6672894998642294  0.3346454761048576  0.3343377045165234
  0.3346378079459649  0.6672920620891686  0.1676720199041377
  0.3339554998642359  0.6679794761048511  0.6676717045165242
  0.0013048079459618  0.0006250620891717  0.5010050199041413
  0.0006224998642327  0.0013124761048544  0.0010047045165273
  0.6679718079459587  0.3339580620891749  0.8343380199041374
  0.6236005466681019  0.9863834592390514  0.2693595194382102
  0.0127526333295820  0.6371599848593855  0.2690454446754044
  0.3627681316086971  0.3756158041166847  0.2694329308908132
  0.0294150030669157  0.3199317535061501  0.1028507886840152
  0.6792058191347840  0.7086825829586466  0.1025367519227179
  0.2905574734029952  0.9705006809031824  0.1024520964086891
  0.2902665466681012  0.3197174592390524  0.6026935194382039
  0.6794186333295815  0.9704939848593862  0.6023794446753982
  0.0294341316086964  0.7089498041166855  0.6027669308908069
  0.6960820030669195  0.6532647535061460  0.4361837886840185
  0.3458728191347882  0.0420155829586429  0.4358697519227210
  0.9572244734029991  0.3038336809031786  0.4357850964086922
  0.9569335466681052  0.6530504592390481  0.9360265194382071
  0.3460856333295850  0.3038269848593823  0.9357124446754014
  0.6961011316087002  0.0422828041166814  0.9360999308908101
  0.3627490030669164  0.9865977535061492  0.7695167886840214
  0.0125398191347849  0.3753485829586461  0.7692027519227241
  0.6238914734029959  0.6371666809031817  0.7691180964086958
 
  0.00000000E+00  0.00000000E+00  0.00000000E+00
  0.00000000E+00  0.00000000E+00  0.00000000E+00
  0.00000000E+00  0.00000000E+00  0.00000000E+00
  0.00000000E+00  0.00000000E+00  0.00000000E+00
  0.00000000E+00  0.00000000E+00  0.00000000E+00
  0.00000000E+00  0.00000000E+00  0.00000000E+00
  0.00000000E+00  0.00000000E+00  0.00000000E+00
  0.00000000E+00  0.00000000E+00  0.00000000E+00
  0.00000000E+00  0.00000000E+00  0.00000000E+00
  0.00000000E+00  0.00000000E+00  0.00000000E+00
  0.00000000E+00  0.00000000E+00  0.00000000E+00
  0.00000000E+00  0.00000000E+00  0.00000000E+00
  0.00000000E+00  0.00000000E+00  0.00000000E+00
  0.00000000E+00  0.00000000E+00  0.00000000E+00
  0.00000000E+00  0.00000000E+00  0.00000000E+00
  0.00000000E+00  0.00000000E+00  0.00000000E+00
  0.00000000E+00  0.00000000E+00  0.00000000E+00
  0.00000000E+00  0.00000000E+00  0.00000000E+00
  0.00000000E+00  0.00000000E+00  0.00000000E+00
  0.00000000E+00  0.00000000E+00  0.00000000E+00
  0.00000000E+00  0.00000000E+00  0.00000000E+00
  0.00000000E+00  0.00000000E+00  0.00000000E+00
  0.00000000E+00  0.00000000E+00  0.00000000E+00
  0.00000000E+00  0.00000000E+00  0.00000000E+00
  0.00000000E+00  0.00000000E+00  0.00000000E+00
  0.00000000E+00  0.00000000E+00  0.00000000E+00
  0.00000000E+00  0.00000000E+00  0.00000000E+00
  0.00000000E+00  0.00000000E+00  0.00000000E+00
  0.00000000E+00  0.00000000E+00  0.00000000E+00
  0.00000000E+00  0.00000000E+00  0.00000000E+00
