generated by phonopy                    
   1.00000000000000     
     5.1075918513897252    0.0000000000000000    0.0000000000000000
    -2.5537959300000002    4.4232731699999999    0.0165873500000000
     0.0000000000000000    0.0518007800000000   13.8134756299999992
   Li   Nb   O 
     6     6    18
Direct
  0.6666057435028434  0.3333039746082314  0.0506325806423565
  0.0000322311053816 -0.0000290253917718  0.2172995806423604
  0.3332717435028497  0.6666379746082249  0.3839665806423573
  0.6666992311053787  0.3333039746082314  0.5506325806423565
 -0.0000612564971534 -0.0000290253917718  0.7172995806423604
  0.3333652311053847  0.6666379746082249  0.8839665806423572
  0.6664119253045230  0.3316618761181582  0.3343733087777649
  0.3319169508136321  0.6649958761181517  0.1677073087777656
  0.3330779253045293  0.6649958761181517  0.6677073087777657
 -0.0014160491863712 -0.0016711238818450  0.5010403087777690
 -0.0002550746954738 -0.0016711238818450  0.0010403087777688
  0.6652509508136256  0.3316618761181582  0.8343733087777651
  0.6249978988699381  0.9875364560426384  0.2691107158351316
  0.0137497761313501  0.6390732483458630  0.2692239300832355
  0.3611270563310774  0.3750894448851183  0.2697244646615085
  0.0292055571726971  0.3208704560426389  0.1024447158351253
  0.6806293885540374  0.7084234448851188  0.1030584646615022
  0.2919904722145094  0.9724072483458637  0.1025579300832290
  0.2916638988699374  0.3208704560426389  0.6024447158351250
  0.6804157761313496  0.9724072483458637  0.6025579300832289
  0.0277930563310768  0.7084234448851188  0.6030584646615024
  0.6958725571727009  0.6542034560426352  0.4357777158351284
  0.3472963885540415  0.0417564448851151  0.4363914646615053
  0.9586574722145134  0.3057402483458594  0.4358909300832323
  0.9583308988699413  0.6542034560426352  0.9357777158351283
  0.3470827761313532  0.3057402483458594  0.9358909300832321
  0.6944600563310808  0.0417564448851151  0.9363914646615056
  0.3625395571726979  0.9875364560426384  0.7691107158351315
  0.0139633885540383  0.3750894448851183  0.7697244646615088
  0.6253244722145102  0.6390732483458630  0.7692239300832353
 
  0.00000000E+00  0.00000000E+00  0.00000000E+00
  0.00000000E+00  0.00000000E+00  0.00000000E+00
  0.00000000E+00  0.00000000E+00  0.00000000E+00
  0.00000000E+00  0.00000000E+00  0.00000000E+00
  0.00000000E+00  0.00000000E+00  0.00000000E+00
  0.00000000E+00  0.00000000E+00  0.00000000E+00
  0.00000000E+00  0.00000000E+00  0.00000000E+00
  0.00000000E+00  0.00000000E+00  0.00000000E+00
  0.00000000E+00  0.00000000E+00  0.00000000E+00
  0.00000000E+00  0.00000000E+00  0.00000000E+00
  0.00000000E+00  0.00000000E+00  0.00000000E+00
  0.00000000E+00  0.00000000E+00  0.00000000E+00
  0.00000000E+00  0.00000000E+00  0.00000000E+00
  0.00000000E+00  0.00000000E+00  0.00000000E+00
  0.00000000E+00  0.00000000E+00  0.00000000E+00
  0.00000000E+00  0.00000000E+00  0.00000000E+00
  0.00000000E+00  0.00000000E+00  0.00000000E+00
  0.00000000E+00  0.00000000E+00  0.00000000E+00
  0.00000000E+00  0.00000000E+00  0.00000000E+00
  0.00000000E+00  0.00000000E+00  0.00000000E+00
  0.00000000E+00  0.00000000E+00  0.00000000E+00
  0.00000000E+00  0.00000000E+00  0.00000000E+00
  0.00000000E+00  0.00000000E+00  0.00000000E+00
  0.00000000E+00  0.00000000E+00  0.00000000E+00
  0.00000000E+00  0.00000000E+00  0.00000000E+00
  0.00000000E+00  0.00000000E+00  0.00000000E+00
  0.00000000E+00  0.00000000E+00  0.00000000E+00
  0.00000000E+00  0.00000000E+00  0.00000000E+00
  0.00000000E+00  0.00000000E+00  0.00000000E+00
  0.00000000E+00  0.00000000E+00  0.00000000E+00
