generated by phonopy                    
   1.00000000000000     
     5.1075918513897252    0.0000000000000000    0.0000000000000000
    -2.5537959256948626    4.4233042733132315    0.0000000000000000
     0.0000000000000000    0.0000000000000000   13.8135727574686822
   Li   Nb   O 
     6     6    18
Direct
  0.6666741219730148  0.3333188531530928  0.0506351774222484
 -0.0000116974912713  0.0000102643592838  0.2173022155635106
  0.3333401219730210  0.6666528531530940  0.3839691774222490
  0.6666553025087256  0.3333432643592870  0.5506352155635069
  0.0000071219730178 -0.0000141468469103  0.7173021774222523
  0.3333213025087319  0.6666772643592808  0.8839692155635076
  0.6666692371028102  0.3333391423966217  0.3343746045350929
  0.3333361831987151  0.6666671128148836  0.1677088039257445
  0.3333352371028167  0.6666731423966153  0.6677086045350941
  0.0000031831987119  0.0000001128148866  0.5010418039257475
  0.0000022371028135  0.0000061423966186  0.0010416045350968
  0.6666701831987085  0.3333331128148898  0.8343748039257436
  0.6250762290873979  0.9866123002929862  0.2693560006193723
  0.0133802397026095  0.6384539505977613  0.2693464031562117
  0.3615400292131907  0.3749374193963760  0.2693526988691434
  0.0282007976073108  0.3199331070165482  0.1026910867899182
  0.6800543807186725  0.7082680532388090  0.1026821425644659
  0.2917474788875394  0.9717927967336332  0.1026838665542648
  0.2917422290873973  0.3199463002929868  0.6026900006193656
  0.6800462397026089  0.9717879505977620  0.6026804031562053
  0.0282060292131901  0.7082714193963768  0.6026866988691372
  0.6948677976073149  0.6532661070165445  0.4360240867899214
  0.3467213807186761  0.0416010532388052  0.4360151425644690
  0.9584144788875434  0.3051257967336290  0.4360168665542681
  0.9584092290874011  0.6532793002929901  0.9360230006193688
  0.3467132397026127  0.3051209505977583  0.9360134031562085
  0.6948730292131939  0.0416044193963729  0.9360196988691404
  0.3615347976073114  0.9865991070165477  0.7693570867899249
  0.0133883807186730  0.3749340532388085  0.7693481425644723
  0.6250814788875402  0.6384587967336325  0.7693498665542711
 
  0.00000000E+00  0.00000000E+00  0.00000000E+00
  0.00000000E+00  0.00000000E+00  0.00000000E+00
  0.00000000E+00  0.00000000E+00  0.00000000E+00
  0.00000000E+00  0.00000000E+00  0.00000000E+00
  0.00000000E+00  0.00000000E+00  0.00000000E+00
  0.00000000E+00  0.00000000E+00  0.00000000E+00
  0.00000000E+00  0.00000000E+00  0.00000000E+00
  0.00000000E+00  0.00000000E+00  0.00000000E+00
  0.00000000E+00  0.00000000E+00  0.00000000E+00
  0.00000000E+00  0.00000000E+00  0.00000000E+00
  0.00000000E+00  0.00000000E+00  0.00000000E+00
  0.00000000E+00  0.00000000E+00  0.00000000E+00
  0.00000000E+00  0.00000000E+00  0.00000000E+00
  0.00000000E+00  0.00000000E+00  0.00000000E+00
  0.00000000E+00  0.00000000E+00  0.00000000E+00
  0.00000000E+00  0.00000000E+00  0.00000000E+00
  0.00000000E+00  0.00000000E+00  0.00000000E+00
  0.00000000E+00  0.00000000E+00  0.00000000E+00
  0.00000000E+00  0.00000000E+00  0.00000000E+00
  0.00000000E+00  0.00000000E+00  0.00000000E+00
  0.00000000E+00  0.00000000E+00  0.00000000E+00
  0.00000000E+00  0.00000000E+00  0.00000000E+00
  0.00000000E+00  0.00000000E+00  0.00000000E+00
  0.00000000E+00  0.00000000E+00  0.00000000E+00
  0.00000000E+00  0.00000000E+00  0.00000000E+00
  0.00000000E+00  0.00000000E+00  0.00000000E+00
  0.00000000E+00  0.00000000E+00  0.00000000E+00
  0.00000000E+00  0.00000000E+00  0.00000000E+00
  0.00000000E+00  0.00000000E+00  0.00000000E+00
  0.00000000E+00  0.00000000E+00  0.00000000E+00
