Ba18 Ti18 O54
1.0
3.953265 0.000000 0.000000
0.000000 71.158773 0.000000
0.000000 0.000000 3.970536
Ba Ti O
14 13 44
Selective dynamics
direct
0.000000 0.055556 0.000000 F F F Ba
0.000000 0.111111 0.000000 F F F Ba
0.000000 0.166667 0.000000 F F F Ba
0.000000 0.222222 0.000000 F F F Ba
0.000000 0.277778 0.000000 F F F Ba
0.000000 0.333333 0.000000 T T T Ba
0.000000 0.388889 0.000000 T T T Ba
0.000000 0.444444 0.000000 T T T Ba
0.000000 0.500000 0.000000 F F F Ba
0.000000 0.555556 0.000000 F F F Ba
0.000000 0.611111 0.000000 F F F Ba
0.000000 0.666667 0.000000 F F F Ba
0.000000 0.722222 0.000000 F F F Ba
0.000000 0.777778 0.000000 F F F Ba
0.500000 0.027778 0.507648 F F F Ti
0.500000 0.083333 0.507648 F F F Ti
0.500000 0.138889 0.507648 F F F Ti
0.500000 0.194444 0.507648 F F F Ti
0.500000 0.250000 0.507648 F F F Ti
0.500000 0.305556 0.507648 F F F Ti
0.500000 0.361111 0.5082539076686956 T T T Ti
0.500000 0.416667 0.4985998101488605 T T T Ti
0.500000 0.472222 0.4916740916620768 T T T Ti
0.500000 0.527778 0.492352 F F F Ti
0.500000 0.583333 0.492352 F F F Ti
0.500000 0.638889 0.492352 F F F Ti
0.500000 0.694444 0.492352 F F F Ti
0.500000 0.750000 0.492352 F F F Ti
0.500000 0.805556 0.492352 F F F Ti
0.000000 0.027778 0.492092 F F F O
0.000000 0.083333 0.492092 F F F O
0.000000 0.138889 0.492092 F F F O
0.000000 0.194444 0.492092 F F F O
0.000000 0.250000 0.492092 F F F O
0.000000 0.305556 0.492092 F F F O
0.000000 0.361111 0.4941035536137051 T T T O
0.000000 0.416667 0.5007469997188139 T T T O
0.000000 0.472222 0.5067652907834841 T T T O
0.000000 0.527778 0.507908 F F F O
0.000000 0.583333 0.507908 F F F O
0.000000 0.638889 0.507908 F F F O
0.000000 0.694444 0.507908 F F F O
0.000000 0.750000 0.507908 F F F O
0.000000 0.805556 0.507908 F F F O
0.500000 0.055556 0.492092 F F F O
0.500000 0.111111 0.492092 F F F O
0.500000 0.166667 0.492092 F F F O
0.500000 0.222222 0.492092 F F F O
0.500000 0.277778 0.492092 F F F O
0.500000 0.333333 0.4934952914249777 T T T O
0.500000 0.388889 0.4975890683377742 T T T O
0.500000 0.444444 0.5036002435935103 T T T O
0.500000 0.500000 0.507908 F F F O
0.500000 0.555556 0.507908 F F F O
0.500000 0.611111 0.507908 F F F O
0.500000 0.666667 0.507908 F F F O
0.500000 0.722222 0.507908 F F F O
0.500000 0.777778 0.507908 F F F O
0.500000 0.027778 0.988961 F F F O
0.500000 0.083333 0.988961 F F F O
0.500000 0.138889 0.988961 F F F O
0.500000 0.194444 0.988961 F F F O
0.500000 0.250000 0.988961 F F F O
0.500000 0.305556 0.988961 F F F O
0.500000 0.361111 0.9916336306849374 T T T O
0.500000 0.416667 1.0012595574323626 T T T O
0.500000 0.472222 1.0093715242002119 T T T O
0.500000 0.527778 1.011039 F F F O
0.500000 0.583333 1.011039 F F F O
0.500000 0.638889 1.011039 F F F O
0.500000 0.694444 1.011039 F F F O
0.500000 0.750000 1.011039 F F F O
0.500000 0.805556 1.011039 F F F O

0.000000 0.000000 0.000000
0.000000 0.000000 0.000000
0.000000 0.000000 0.000000
0.000000 0.000000 0.000000
0.000000 0.000000 0.000000
0.000000 0.000000 0.000000
0.000000 0.000000 0.000000
0.000000 0.000000 0.000000
0.000000 0.000000 0.000000
0.000000 0.000000 0.000000
0.000000 0.000000 0.000000
0.000000 0.000000 0.000000
0.000000 0.000000 0.000000
0.000000 0.000000 0.000000
0.000000 0.000000 0.000000
0.000000 0.000000 0.000000
0.000000 0.000000 0.000000
0.000000 0.000000 0.000000
0.000000 0.000000 0.000000
0.000000 0.000000 0.000000
0.000000 0.000000 0.000000
0.000000 0.000000 0.000000
0.000000 0.000000 0.000000
0.000000 0.000000 0.000000
0.000000 0.000000 0.000000
0.000000 0.000000 0.000000
0.000000 0.000000 0.000000
0.000000 0.000000 0.000000
0.000000 0.000000 0.000000
0.000000 0.000000 0.000000
0.000000 0.000000 0.000000
0.000000 0.000000 0.000000
0.000000 0.000000 0.000000
0.000000 0.000000 0.000000
0.000000 0.000000 0.000000
0.000000 0.000000 0.000000
0.000000 0.000000 0.000000
0.000000 0.000000 0.000000
0.000000 0.000000 0.000000
0.000000 0.000000 0.000000
0.000000 0.000000 0.000000
0.000000 0.000000 0.000000
0.000000 0.000000 0.000000
0.000000 0.000000 0.000000
0.000000 0.000000 0.000000
0.000000 0.000000 0.000000
0.000000 0.000000 0.000000
0.000000 0.000000 0.000000
0.000000 0.000000 0.000000
0.000000 0.000000 0.000000
0.000000 0.000000 0.000000
0.000000 0.000000 0.000000
0.000000 0.000000 0.000000
0.000000 0.000000 0.000000
0.000000 0.000000 0.000000
0.000000 0.000000 0.000000
0.000000 0.000000 0.000000
0.000000 0.000000 0.000000
0.000000 0.000000 0.000000
0.000000 0.000000 0.000000
0.000000 0.000000 0.000000
0.000000 0.000000 0.000000
0.000000 0.000000 0.000000
0.000000 0.000000 0.000000
0.000000 0.000000 0.000000
0.000000 0.000000 0.000000
0.000000 0.000000 0.000000
0.000000 0.000000 0.000000
0.000000 0.000000 0.000000
0.000000 0.000000 0.000000
0.000000 0.000000 0.000000
0.000000 0.000000 0.000000
0.000000 0.000000 0.000000
0.000000 0.000000 0.000000
0.000000 0.000000 0.000000
0.000000 0.000000 0.000000
0.000000 0.000000 0.000000
0.000000 0.000000 0.000000
0.000000 0.000000 0.000000
0.000000 0.000000 0.000000
0.000000 0.000000 0.000000
0.000000 0.000000 0.000000
0.000000 0.000000 0.000000
0.000000 0.000000 0.000000
0.000000 0.000000 0.000000
0.000000 0.000000 0.000000
0.000000 0.000000 0.000000
0.000000 0.000000 0.000000
0.000000 0.000000 0.000000
0.000000 0.000000 0.000000
