generated by phonopy                    
   1.00000000000000     
     5.1075918513897252    0.0000000000000000    0.0000000000000000
    -2.5537959300000002    4.4231798700000002    0.0331744700000000
     0.0000000000000000    0.1036008200000000   13.8131842500000008
   Li   Nb   O 
     6     6    18
Direct
  0.6665521488665648  0.3332584004571940  0.0506090367841877
  0.0000402515906229 -0.0000745995428091  0.2172760367841916
  0.3332181488665711  0.6665924004571877  0.3839430367841883
  0.6667072515906198  0.3332584004571940  0.5506090367841877
 -0.0001148511334320 -0.0000745995428091  0.7172760367841916
  0.3333732515906262  0.6665924004571877  0.8839430367841884
  0.6661673144529238  0.3300331882841906  0.3343647090427593
  0.3305328738312636  0.6633671882841840  0.1676987090427600
  0.3328333144529301  0.6633671882841840  0.6676987090427602
 -0.0028001261687396 -0.0032998117158126  0.5010317090427634
 -0.0004996855470731 -0.0032998117158126  0.0010317090427632
  0.6638668738312573  0.3300331882841906  0.8343647090427595
  0.6249356219000229  0.9884411443403680  0.2688861339391620
  0.0141148264793607  0.6397111599461655  0.2690979057977135
  0.3606836118277639  0.3752211069720911  0.2701072144361746
  0.0301725224403418  0.3217751443403687  0.1022201339391556
  0.6812044951443240  0.7085551069720916  0.1034412144361681
  0.2922633334668013  0.9730451599461661  0.1024319057977071
  0.2916016219000223  0.3217751443403687  0.6022201339391554
  0.6807808264793600  0.9730451599461661  0.6024319057977070
  0.0273496118277632  0.7085551069720916  0.6034412144361683
  0.6968395224403459  0.6551081443403648  0.4355531339391588
  0.3478714951443277  0.0418881069720878  0.4367742144361714
  0.9589303334668053  0.3063781599461620  0.4357649057977103
  0.9582686219000262  0.6551081443403648  0.9355531339391586
  0.3474478264793640  0.3063781599461620  0.9357649057977102
  0.6940166118277670  0.0418881069720878  0.9367742144361715
  0.3635065224403424  0.9884411443403680  0.7688861339391618
  0.0145384951443246  0.3752211069720911  0.7701072144361747
  0.6255973334668021  0.6397111599461655  0.7690979057977134
 
  0.00000000E+00  0.00000000E+00  0.00000000E+00
  0.00000000E+00  0.00000000E+00  0.00000000E+00
  0.00000000E+00  0.00000000E+00  0.00000000E+00
  0.00000000E+00  0.00000000E+00  0.00000000E+00
  0.00000000E+00  0.00000000E+00  0.00000000E+00
  0.00000000E+00  0.00000000E+00  0.00000000E+00
  0.00000000E+00  0.00000000E+00  0.00000000E+00
  0.00000000E+00  0.00000000E+00  0.00000000E+00
  0.00000000E+00  0.00000000E+00  0.00000000E+00
  0.00000000E+00  0.00000000E+00  0.00000000E+00
  0.00000000E+00  0.00000000E+00  0.00000000E+00
  0.00000000E+00  0.00000000E+00  0.00000000E+00
  0.00000000E+00  0.00000000E+00  0.00000000E+00
  0.00000000E+00  0.00000000E+00  0.00000000E+00
  0.00000000E+00  0.00000000E+00  0.00000000E+00
  0.00000000E+00  0.00000000E+00  0.00000000E+00
  0.00000000E+00  0.00000000E+00  0.00000000E+00
  0.00000000E+00  0.00000000E+00  0.00000000E+00
  0.00000000E+00  0.00000000E+00  0.00000000E+00
  0.00000000E+00  0.00000000E+00  0.00000000E+00
  0.00000000E+00  0.00000000E+00  0.00000000E+00
  0.00000000E+00  0.00000000E+00  0.00000000E+00
  0.00000000E+00  0.00000000E+00  0.00000000E+00
  0.00000000E+00  0.00000000E+00  0.00000000E+00
  0.00000000E+00  0.00000000E+00  0.00000000E+00
  0.00000000E+00  0.00000000E+00  0.00000000E+00
  0.00000000E+00  0.00000000E+00  0.00000000E+00
  0.00000000E+00  0.00000000E+00  0.00000000E+00
  0.00000000E+00  0.00000000E+00  0.00000000E+00
  0.00000000E+00  0.00000000E+00  0.00000000E+00
