generated by phonopy                    
   1.00000000000000     
     5.1075918513897252    0.0000000000000000    0.0000000000000000
    -2.5537959300000002    4.4229587099999996    0.0552898600000000
     0.0000000000000000    0.1726651600000000   13.8124935900000008
   Li   Nb   O 
     6     6    18
Direct
  0.6665375905780635  0.3331961166901985  0.0505480280351349
 -0.0000074738878715 -0.0001368833098047  0.2172150280351388
  0.3332035905780699  0.6665301166901919  0.3838820280351357
  0.6666595261121255  0.3331961166901985  0.5505480280351349
 -0.0001294094219332 -0.0001368833098047  0.7172150280351388
  0.3333255261121319  0.6665301166901919  0.8838820280351356
  0.6658484225416234  0.3279561107344265  0.3343382739580107
  0.3287746881927999  0.6612901107344200  0.1676722739580115
  0.3325144225416297  0.6612901107344200  0.6676722739580118
 -0.0045583118072032 -0.0053768892655767  0.5010052739580150
 -0.0008185774583734 -0.0053768892655767  0.0010052739580147
  0.6621086881927936  0.3279561107344265  0.8343382739580111
  0.6248600092523218  0.9895973675427250  0.2686298995627271
  0.0145938981207835  0.6405722833764088  0.2689285955291241
  0.3600408177219612  0.3753431216562500  0.2706202029150003
  0.0314043582904000  0.3229313675427255  0.1019638995627207
  0.6819693039342856  0.7086771216562507  0.1039542029149937
  0.2926453852556224  0.9739062833764095  0.1022625955291178
  0.2915260092523209  0.3229313675427255  0.6019638995627205
  0.6812598981207827  0.9739062833764095  0.6022625955291179
  0.0267068177219605  0.7086771216562507  0.6039542029149937
  0.6980713582904039  0.6562643675427218  0.4352968995627239
  0.3486363039342894  0.0420101216562468  0.4372872029149971
  0.9593123852556263  0.3072392833764058  0.4355955955291209
  0.9581930092523250  0.6562643675427218  0.9352968995627237
  0.3479268981207868  0.3072392833764058  0.9355955955291211
  0.6933738177219644  0.0420101216562468  0.9372872029149969
  0.3647383582904009  0.9895973675427250  0.7686298995627269
  0.0153033039342863  0.3753431216562500  0.7706202029150001
  0.6259793852556231  0.6405722833764088  0.7689285955291243
 
  0.00000000E+00  0.00000000E+00  0.00000000E+00
  0.00000000E+00  0.00000000E+00  0.00000000E+00
  0.00000000E+00  0.00000000E+00  0.00000000E+00
  0.00000000E+00  0.00000000E+00  0.00000000E+00
  0.00000000E+00  0.00000000E+00  0.00000000E+00
  0.00000000E+00  0.00000000E+00  0.00000000E+00
  0.00000000E+00  0.00000000E+00  0.00000000E+00
  0.00000000E+00  0.00000000E+00  0.00000000E+00
  0.00000000E+00  0.00000000E+00  0.00000000E+00
  0.00000000E+00  0.00000000E+00  0.00000000E+00
  0.00000000E+00  0.00000000E+00  0.00000000E+00
  0.00000000E+00  0.00000000E+00  0.00000000E+00
  0.00000000E+00  0.00000000E+00  0.00000000E+00
  0.00000000E+00  0.00000000E+00  0.00000000E+00
  0.00000000E+00  0.00000000E+00  0.00000000E+00
  0.00000000E+00  0.00000000E+00  0.00000000E+00
  0.00000000E+00  0.00000000E+00  0.00000000E+00
  0.00000000E+00  0.00000000E+00  0.00000000E+00
  0.00000000E+00  0.00000000E+00  0.00000000E+00
  0.00000000E+00  0.00000000E+00  0.00000000E+00
  0.00000000E+00  0.00000000E+00  0.00000000E+00
  0.00000000E+00  0.00000000E+00  0.00000000E+00
  0.00000000E+00  0.00000000E+00  0.00000000E+00
  0.00000000E+00  0.00000000E+00  0.00000000E+00
  0.00000000E+00  0.00000000E+00  0.00000000E+00
  0.00000000E+00  0.00000000E+00  0.00000000E+00
  0.00000000E+00  0.00000000E+00  0.00000000E+00
  0.00000000E+00  0.00000000E+00  0.00000000E+00
  0.00000000E+00  0.00000000E+00  0.00000000E+00
  0.00000000E+00  0.00000000E+00  0.00000000E+00
