generated by phonopy                    
   1.00000000000000     
     5.1075918513897252    0.0000000000000000    0.0000000000000000
    -2.5537959256948626    4.4233042733132315    0.0000000000000000
     0.0000000000000000    0.0000000000000000   14.0898442126180559
   Li   Nb   O 
     6     6    18
Direct
  0.6666669999999968  0.3333330000000032  0.0500468577598579
  0.0000000000000000 -0.0000000000000000  0.2167138577598618
  0.3333330000000032  0.6666669999999968  0.3833808577598586
  0.6666669999999968  0.3333330000000032  0.5500468577598578
  0.0000000000000000 -0.0000000000000000  0.7167138577598617
  0.3333330000000032  0.6666669999999968  0.8833808577598585
  0.6666669999999968  0.3333330000000032  0.3345059240749428
  0.3333330000000032  0.6666669999999968  0.1678399240749434
  0.3333330000000032  0.6666669999999968  0.6678399240749434
  0.0000000000000000 -0.0000000000000000  0.5011729240749466
  0.0000000000000000 -0.0000000000000000  0.0011729240749466
  0.6666669999999968  0.3333330000000032  0.8345059240749427
  0.6230479217100648  0.9877017691638563  0.2695040727217321
  0.0122982308364064  0.6353451525452304  0.2695040727217321
  0.3646548474535263  0.3769520782909156  0.2695040727217321
  0.0313208474537884  0.3210357691638572  0.1028380727217257
  0.6789642308373864  0.7102860782909164  0.1028380727217257
  0.2897139217088208  0.9686791525452311  0.1028380727217257
  0.2897139217100642  0.3210357691638572  0.6028380727217257
  0.6789642308364059  0.9686791525452311  0.6028380727217257
  0.0313208474535255  0.7102860782909164  0.6028380727217257
  0.6979878474537923  0.6543687691638531  0.4361710727217289
  0.3456312308373901  0.0436190782909124  0.4361710727217289
  0.9563809217088246  0.3020121525452271  0.4361710727217289
  0.9563809217100681  0.6543687691638531  0.9361710727217289
  0.3456312308364096  0.3020121525452271  0.9361710727217289
  0.6979878474535294  0.0436190782909124  0.9361710727217289
  0.3646548474537892  0.9877017691638563  0.7695040727217322
  0.0122982308373869  0.3769520782909156  0.7695040727217322
  0.6230479217088214  0.6353451525452304  0.7695040727217322
 
  0.00000000E+00  0.00000000E+00  0.00000000E+00
  0.00000000E+00  0.00000000E+00  0.00000000E+00
  0.00000000E+00  0.00000000E+00  0.00000000E+00
  0.00000000E+00  0.00000000E+00  0.00000000E+00
  0.00000000E+00  0.00000000E+00  0.00000000E+00
  0.00000000E+00  0.00000000E+00  0.00000000E+00
  0.00000000E+00  0.00000000E+00  0.00000000E+00
  0.00000000E+00  0.00000000E+00  0.00000000E+00
  0.00000000E+00  0.00000000E+00  0.00000000E+00
  0.00000000E+00  0.00000000E+00  0.00000000E+00
  0.00000000E+00  0.00000000E+00  0.00000000E+00
  0.00000000E+00  0.00000000E+00  0.00000000E+00
  0.00000000E+00  0.00000000E+00  0.00000000E+00
  0.00000000E+00  0.00000000E+00  0.00000000E+00
  0.00000000E+00  0.00000000E+00  0.00000000E+00
  0.00000000E+00  0.00000000E+00  0.00000000E+00
  0.00000000E+00  0.00000000E+00  0.00000000E+00
  0.00000000E+00  0.00000000E+00  0.00000000E+00
  0.00000000E+00  0.00000000E+00  0.00000000E+00
  0.00000000E+00  0.00000000E+00  0.00000000E+00
  0.00000000E+00  0.00000000E+00  0.00000000E+00
  0.00000000E+00  0.00000000E+00  0.00000000E+00
  0.00000000E+00  0.00000000E+00  0.00000000E+00
  0.00000000E+00  0.00000000E+00  0.00000000E+00
  0.00000000E+00  0.00000000E+00  0.00000000E+00
  0.00000000E+00  0.00000000E+00  0.00000000E+00
  0.00000000E+00  0.00000000E+00  0.00000000E+00
  0.00000000E+00  0.00000000E+00  0.00000000E+00
  0.00000000E+00  0.00000000E+00  0.00000000E+00
  0.00000000E+00  0.00000000E+00  0.00000000E+00
