generated by phonopy                    
   1.00000000000000     
     5.1458987902751483    0.0000000000000000    0.0000000000000000
    -2.5537959256948626    4.4233042733132315    0.0000000000000000
     0.0000000000000000    0.0000000000000000   13.8135727574686822
   Li   Nb   O 
     6     6    18
Direct
  0.6669873080095352  0.3327645099903512  0.0509902159299852
 -0.0005787590094057  0.0003428662226266  0.2176583040542763
  0.3336533080095415  0.6660985099903450  0.3843242159299859
  0.6660882409905913  0.3336758662226298  0.5509913040542723
  0.0003203080095384 -0.0005684900096520  0.7176572159299890
  0.3327542409905976  0.6670098662226236  0.8843253040542730
  0.6676193354218117  0.3353371729131969  0.3343212083976909
  0.3353210180401244  0.6676244899292135  0.1676547843984931
  0.3342853354218180  0.6686711729131902  0.6676552083976918
  0.0019880180401211  0.0009574899292168  0.5009877843984964
  0.0009523354218149  0.0020041729131936  0.0009882083976949
  0.6686550180401178  0.3342904899292200  0.8343207843984926
  0.6227901005974041  0.9862295578034157  0.2693682537995770
  0.0123754043103357  0.6365359493596697  0.2688818111399583
  0.3633491698639562  0.3759873551059087  0.2695033991286840
  0.0300304973605907  0.3198377477693883  0.1029629716632654
  0.6787800301337404  0.7088393591173342  0.1024769343365503
  0.2899928952718970  0.9698339917889055  0.1023151171514991
  0.2894561005974037  0.3195635578034163  0.6027022537995705
  0.6790414043103350  0.9698699493596704  0.6022158111399519
  0.0300151698639556  0.7093213551059094  0.6028373991286775
  0.6966974973605947  0.6531707477693843  0.4362959716632686
  0.3454470301337441  0.0421723591173305  0.4358099343365537
  0.9566598952719009  0.3031669917889016  0.4356481171515022
  0.9561231005974073  0.6528965578034125  0.9360352537995738
  0.3457084043103389  0.3032029493596662  0.9355488111399551
  0.6966821698639595  0.0426543551059055  0.9361703991286807
  0.3633644973605914  0.9865037477693875  0.7696289716632714
  0.0121140301337409  0.3755053591173336  0.7691429343365569
  0.6233268952718977  0.6364999917889048  0.7689811171515053
 
  0.00000000E+00  0.00000000E+00  0.00000000E+00
  0.00000000E+00  0.00000000E+00  0.00000000E+00
  0.00000000E+00  0.00000000E+00  0.00000000E+00
  0.00000000E+00  0.00000000E+00  0.00000000E+00
  0.00000000E+00  0.00000000E+00  0.00000000E+00
  0.00000000E+00  0.00000000E+00  0.00000000E+00
  0.00000000E+00  0.00000000E+00  0.00000000E+00
  0.00000000E+00  0.00000000E+00  0.00000000E+00
  0.00000000E+00  0.00000000E+00  0.00000000E+00
  0.00000000E+00  0.00000000E+00  0.00000000E+00
  0.00000000E+00  0.00000000E+00  0.00000000E+00
  0.00000000E+00  0.00000000E+00  0.00000000E+00
  0.00000000E+00  0.00000000E+00  0.00000000E+00
  0.00000000E+00  0.00000000E+00  0.00000000E+00
  0.00000000E+00  0.00000000E+00  0.00000000E+00
  0.00000000E+00  0.00000000E+00  0.00000000E+00
  0.00000000E+00  0.00000000E+00  0.00000000E+00
  0.00000000E+00  0.00000000E+00  0.00000000E+00
  0.00000000E+00  0.00000000E+00  0.00000000E+00
  0.00000000E+00  0.00000000E+00  0.00000000E+00
  0.00000000E+00  0.00000000E+00  0.00000000E+00
  0.00000000E+00  0.00000000E+00  0.00000000E+00
  0.00000000E+00  0.00000000E+00  0.00000000E+00
  0.00000000E+00  0.00000000E+00  0.00000000E+00
  0.00000000E+00  0.00000000E+00  0.00000000E+00
  0.00000000E+00  0.00000000E+00  0.00000000E+00
  0.00000000E+00  0.00000000E+00  0.00000000E+00
  0.00000000E+00  0.00000000E+00  0.00000000E+00
  0.00000000E+00  0.00000000E+00  0.00000000E+00
  0.00000000E+00  0.00000000E+00  0.00000000E+00
