generated by phonopy                    
   1.00000000000000     
     5.1075918513897252    0.0000000000000000    0.0000000000000000
    -2.5537959256948626    4.4233042733132315    0.0000000000000000
     0.0000000000000000    0.0000000000000000   13.9517084850433690
   Li   Nb   O 
     6     6    18
Direct
  0.6666669999999968  0.3333330000000032  0.0503350265644751
 -0.0000000000000000  0.0000000000000000  0.2170020265644790
  0.3333330000000032  0.6666669999999968  0.3836690265644758
  0.6666669999999968  0.3333330000000032  0.5503350265644750
 -0.0000000000000000  0.0000000000000000  0.7170020265644789
  0.3333330000000032  0.6666669999999968  0.8836690265644757
  0.6666669999999968  0.3333330000000032  0.3344692039617420
  0.3333330000000032  0.6666669999999968  0.1678032039617426
  0.3333330000000032  0.6666669999999968  0.6678032039617428
 -0.0000000000000000  0.0000000000000000  0.5011362039617460
 -0.0000000000000000  0.0000000000000000  0.0011362039617458
  0.6666669999999968  0.3333330000000032  0.8344692039617421
  0.6240525002134635  0.9871648638374096  0.2694202564912601
  0.0128351361628532  0.6368866363750757  0.2694202564912601
  0.3631133636236807  0.3759474997875170  0.2694202564912601
  0.0297793636239429  0.3204988638374103  0.1027542564912536
  0.6795011361638331  0.7092814997875178  0.1027542564912536
  0.2907185002122195  0.9702206363750764  0.1027542564912536
  0.2907185002134629  0.3204988638374103  0.6027542564912536
  0.6795011361628526  0.9702206363750764  0.6027542564912536
  0.0297793636236800  0.7092814997875178  0.6027542564912536
  0.6964463636239470  0.6538318638374064  0.4360872564912568
  0.3461681361638371  0.0426144997875138  0.4360872564912568
  0.9573855002122232  0.3035536363750727  0.4360872564912568
  0.9573855002134667  0.6538318638374064  0.9360872564912568
  0.3461681361628565  0.3035536363750727  0.9360872564912568
  0.6964463636236841  0.0426144997875138  0.9360872564912568
  0.3631133636239436  0.9871648638374096  0.7694202564912600
  0.0128351361638338  0.3759474997875170  0.7694202564912600
  0.6240525002122200  0.6368866363750757  0.7694202564912600
 
  0.00000000E+00  0.00000000E+00  0.00000000E+00
  0.00000000E+00  0.00000000E+00  0.00000000E+00
  0.00000000E+00  0.00000000E+00  0.00000000E+00
  0.00000000E+00  0.00000000E+00  0.00000000E+00
  0.00000000E+00  0.00000000E+00  0.00000000E+00
  0.00000000E+00  0.00000000E+00  0.00000000E+00
  0.00000000E+00  0.00000000E+00  0.00000000E+00
  0.00000000E+00  0.00000000E+00  0.00000000E+00
  0.00000000E+00  0.00000000E+00  0.00000000E+00
  0.00000000E+00  0.00000000E+00  0.00000000E+00
  0.00000000E+00  0.00000000E+00  0.00000000E+00
  0.00000000E+00  0.00000000E+00  0.00000000E+00
  0.00000000E+00  0.00000000E+00  0.00000000E+00
  0.00000000E+00  0.00000000E+00  0.00000000E+00
  0.00000000E+00  0.00000000E+00  0.00000000E+00
  0.00000000E+00  0.00000000E+00  0.00000000E+00
  0.00000000E+00  0.00000000E+00  0.00000000E+00
  0.00000000E+00  0.00000000E+00  0.00000000E+00
  0.00000000E+00  0.00000000E+00  0.00000000E+00
  0.00000000E+00  0.00000000E+00  0.00000000E+00
  0.00000000E+00  0.00000000E+00  0.00000000E+00
  0.00000000E+00  0.00000000E+00  0.00000000E+00
  0.00000000E+00  0.00000000E+00  0.00000000E+00
  0.00000000E+00  0.00000000E+00  0.00000000E+00
  0.00000000E+00  0.00000000E+00  0.00000000E+00
  0.00000000E+00  0.00000000E+00  0.00000000E+00
  0.00000000E+00  0.00000000E+00  0.00000000E+00
  0.00000000E+00  0.00000000E+00  0.00000000E+00
  0.00000000E+00  0.00000000E+00  0.00000000E+00
  0.00000000E+00  0.00000000E+00  0.00000000E+00
