generated by phonopy                    
   1.00000000000000     
     5.1075918513897252    0.0000000000000000    0.0000000000000000
    -2.5537959300000002    4.4232489800000003    0.0221164300000000
     0.0000000000000000    0.0690675800000000   13.8134000900000000
   Li   Nb   O 
     6     6    18
Direct
  0.6665822370164224  0.3332806158458019  0.0506259901979914
  0.0000323788293730 -0.0000523841542014  0.2172929901979953
  0.3332482370164289  0.6666146158457953  0.3839599901979919
  0.6666993788293699  0.3332806158458019  0.5506259901979913
 -0.0000847629835744 -0.0000523841542014  0.7172929901979952
  0.3333653788293763  0.6666146158457953  0.8839599901979920
  0.6663275495136268  0.3311215488606011  0.3343702296430005
  0.3314609993469712  0.6644555488605950  0.1677042296430014
  0.3329935495136331  0.6644555488605950  0.6677042296430016
 -0.0018720006530321 -0.0022114511394021  0.5010372296430048
 -0.0003394504863700 -0.0022114511394021  0.0010372296430046
  0.6647949993469647  0.3311215488606011  0.8343702296430009
  0.6249668802232716  0.9878376971530904  0.2690320624532564
  0.0138743171551073  0.6392928937580559  0.2691862411669714
  0.3609821402219413  0.3751322443824594  0.2698504765387771
  0.0295378169298156  0.3211716971530911  0.1023660624532501
  0.6808171041605148  0.7084662443824601  0.1031844765387706
  0.2920855766029457  0.9726268937580566  0.1025202411669651
  0.2916328802232710  0.3211716971530911  0.6023660624532499
  0.6805403171551063  0.9726268937580566  0.6025202411669653
  0.0276481402219406  0.7084662443824601  0.6031844765387703
  0.6962048169298198  0.6545046971530872  0.4356990624532532
  0.3474841041605186  0.0417992443824561  0.4365174765387739
  0.9587525766029495  0.3059598937580530  0.4358532411669682
  0.9582998802232748  0.6545046971530872  0.9356990624532531
  0.3472073171551106  0.3059598937580530  0.9358532411669686
  0.6943151402219444  0.0417992443824561  0.9365174765387735
  0.3628718169298165  0.9878376971530904  0.7690320624532563
  0.0141511041605155  0.3751322443824594  0.7698504765387767
  0.6254195766029463  0.6392928937580559  0.7691862411669718
 
  0.00000000E+00  0.00000000E+00  0.00000000E+00
  0.00000000E+00  0.00000000E+00  0.00000000E+00
  0.00000000E+00  0.00000000E+00  0.00000000E+00
  0.00000000E+00  0.00000000E+00  0.00000000E+00
  0.00000000E+00  0.00000000E+00  0.00000000E+00
  0.00000000E+00  0.00000000E+00  0.00000000E+00
  0.00000000E+00  0.00000000E+00  0.00000000E+00
  0.00000000E+00  0.00000000E+00  0.00000000E+00
  0.00000000E+00  0.00000000E+00  0.00000000E+00
  0.00000000E+00  0.00000000E+00  0.00000000E+00
  0.00000000E+00  0.00000000E+00  0.00000000E+00
  0.00000000E+00  0.00000000E+00  0.00000000E+00
  0.00000000E+00  0.00000000E+00  0.00000000E+00
  0.00000000E+00  0.00000000E+00  0.00000000E+00
  0.00000000E+00  0.00000000E+00  0.00000000E+00
  0.00000000E+00  0.00000000E+00  0.00000000E+00
  0.00000000E+00  0.00000000E+00  0.00000000E+00
  0.00000000E+00  0.00000000E+00  0.00000000E+00
  0.00000000E+00  0.00000000E+00  0.00000000E+00
  0.00000000E+00  0.00000000E+00  0.00000000E+00
  0.00000000E+00  0.00000000E+00  0.00000000E+00
  0.00000000E+00  0.00000000E+00  0.00000000E+00
  0.00000000E+00  0.00000000E+00  0.00000000E+00
  0.00000000E+00  0.00000000E+00  0.00000000E+00
  0.00000000E+00  0.00000000E+00  0.00000000E+00
  0.00000000E+00  0.00000000E+00  0.00000000E+00
  0.00000000E+00  0.00000000E+00  0.00000000E+00
  0.00000000E+00  0.00000000E+00  0.00000000E+00
  0.00000000E+00  0.00000000E+00  0.00000000E+00
  0.00000000E+00  0.00000000E+00  0.00000000E+00
