generated by phonopy                    
   1.00000000000000     
     5.1075918513897252    0.0000000000000000    0.0000000000000000
    -2.5537959300000002    4.4232904499999997    0.0110582500000000
     0.0000000000000000    0.0345339000000000   13.8135295899999999
   Li   Nb   O 
     6     6    18
Direct
  0.6666291613475366  0.3333179810425801  0.0506369874527375
  0.0000228196950372 -0.0000150189574230  0.2173039874527414
  0.3332951613475429  0.6666519810425736  0.3839709874527380
  0.6666898196950340  0.3333179810425801  0.5506369874527373
 -0.0000378386524602 -0.0000150189574230  0.7173039874527412
  0.3333558196950404  0.6666519810425736  0.8839709874527379
  0.6664944115192568  0.3322144578104390  0.3343750099987294
  0.3323870462911790  0.6655484578104325  0.1677090099987301
  0.3331604115192632  0.6655484578104325  0.6677090099987301
 -0.0009459537088243 -0.0011185421895643  0.5010420099987333
 -0.0001725884807400 -0.0011185421895643  0.0010420099987333
  0.6657210462911725  0.3322144578104390  0.8343750099987294
  0.6250204086664924  0.9872291238199026  0.2691881579363281
  0.0136301057772326  0.6388649777884284  0.2692648564713999
  0.3612678815613071  0.3750384595386590  0.2695999881408023
  0.0288757151534067  0.3205631238199030  0.1025221579363217
  0.6804375779773486  0.7083724595386593  0.1029339881407958
  0.2919018720111927  0.9721989777884291  0.1025988564713935
  0.2916864086664918  0.3205631238199030  0.6025221579363215
  0.6802961057772320  0.9721989777884291  0.6025988564713934
  0.0279338815613065  0.7083724595386593  0.6029339881407958
  0.6955427151534107  0.6538961238198994  0.4358551579363248
  0.3471045779773525  0.0417054595386557  0.4362669881407991
  0.9585688720111968  0.3055319777884254  0.4359318564713967
  0.9583534086664957  0.6538961238198994  0.9358551579363247
  0.3469631057772357  0.3055319777884254  0.9359318564713967
  0.6946008815613105  0.0417054595386557  0.9362669881407990
  0.3622097151534073  0.9872291238199026  0.7691881579363279
  0.0137715779773493  0.3750384595386590  0.7695999881408022
  0.6252358720111936  0.6388649777884284  0.7692648564713999
 
  0.00000000E+00  0.00000000E+00  0.00000000E+00
  0.00000000E+00  0.00000000E+00  0.00000000E+00
  0.00000000E+00  0.00000000E+00  0.00000000E+00
  0.00000000E+00  0.00000000E+00  0.00000000E+00
  0.00000000E+00  0.00000000E+00  0.00000000E+00
  0.00000000E+00  0.00000000E+00  0.00000000E+00
  0.00000000E+00  0.00000000E+00  0.00000000E+00
  0.00000000E+00  0.00000000E+00  0.00000000E+00
  0.00000000E+00  0.00000000E+00  0.00000000E+00
  0.00000000E+00  0.00000000E+00  0.00000000E+00
  0.00000000E+00  0.00000000E+00  0.00000000E+00
  0.00000000E+00  0.00000000E+00  0.00000000E+00
  0.00000000E+00  0.00000000E+00  0.00000000E+00
  0.00000000E+00  0.00000000E+00  0.00000000E+00
  0.00000000E+00  0.00000000E+00  0.00000000E+00
  0.00000000E+00  0.00000000E+00  0.00000000E+00
  0.00000000E+00  0.00000000E+00  0.00000000E+00
  0.00000000E+00  0.00000000E+00  0.00000000E+00
  0.00000000E+00  0.00000000E+00  0.00000000E+00
  0.00000000E+00  0.00000000E+00  0.00000000E+00
  0.00000000E+00  0.00000000E+00  0.00000000E+00
  0.00000000E+00  0.00000000E+00  0.00000000E+00
  0.00000000E+00  0.00000000E+00  0.00000000E+00
  0.00000000E+00  0.00000000E+00  0.00000000E+00
  0.00000000E+00  0.00000000E+00  0.00000000E+00
  0.00000000E+00  0.00000000E+00  0.00000000E+00
  0.00000000E+00  0.00000000E+00  0.00000000E+00
  0.00000000E+00  0.00000000E+00  0.00000000E+00
  0.00000000E+00  0.00000000E+00  0.00000000E+00
  0.00000000E+00  0.00000000E+00  0.00000000E+00
