generated by phonopy                    
   1.00000000000000     
     5.2352816476744675    0.0000000000000000    0.0000000000000000
    -2.5537959256948626    4.4233042733132315    0.0000000000000000
     0.0000000000000000    0.0000000000000000   13.8135727574686822
   Li   Nb   O 
     6     6    18
Direct
  0.6676797985299376  0.3317046495115087  0.0515745962830043
 -0.0013997447566250  0.0015722175320224  0.2182963681330569
  0.3343457985299443  0.6650386495115022  0.3849085962830049
  0.6652672552433716  0.3349052175320256  0.5516293681330531
  0.0010127985299411 -0.0016283504884947  0.7182415962830084
  0.3319332552433784  0.6682392175320191  0.8849633681330538
  0.6698430170171614  0.3400659974121956  0.3341871544910989
  0.3399039696387177  0.6699242258507466  0.1675198330711109
  0.3365090170171679  0.6733999974121889  0.6675211544910994
  0.0065709696387144  0.0032572258507498  0.5008528330711141
  0.0031760170171647  0.0067329974121924  0.0008541544911027
  0.6732379696387112  0.3365902258507531  0.8341858330711102
  0.6170320589511781  0.9850730163859561  0.2695234559447757
  0.0095826452509973  0.6322279834159757  0.2678164074022220
  0.3676444941124911  0.3787448603900164  0.2699471691068624
  0.0343844079483237  0.3189009674342418  0.1038247696052035
  0.6756986341788405  0.7100050302924362  0.1020750356783792
  0.2862977191289675  0.9651140517749109  0.1013682102842659
  0.2836980589511773  0.3184070163859571  0.6028574559447689
  0.6762486452509966  0.9655619834159764  0.6011504074022158
  0.0343104941124904  0.7120788603900167  0.6032811691068559
  0.7010514079483274  0.6522339674342380  0.4371577696052069
  0.3423656341788444  0.0433380302924322  0.4354080356783825
  0.9529647191289710  0.2984470517749072  0.4347012102842691
  0.9503650589511813  0.6517400163859529  0.9361904559447721
  0.3429156452510005  0.2988949834159726  0.9344834074022190
  0.7009774941124941  0.0454118603900130  0.9366141691068591
  0.3677184079483246  0.9855669674342412  0.7704907696052098
  0.0090326341788411  0.3766710302924355  0.7687410356783851
  0.6196317191289678  0.6317800517749103  0.7680342102842723
 
  0.00000000E+00  0.00000000E+00  0.00000000E+00
  0.00000000E+00  0.00000000E+00  0.00000000E+00
  0.00000000E+00  0.00000000E+00  0.00000000E+00
  0.00000000E+00  0.00000000E+00  0.00000000E+00
  0.00000000E+00  0.00000000E+00  0.00000000E+00
  0.00000000E+00  0.00000000E+00  0.00000000E+00
  0.00000000E+00  0.00000000E+00  0.00000000E+00
  0.00000000E+00  0.00000000E+00  0.00000000E+00
  0.00000000E+00  0.00000000E+00  0.00000000E+00
  0.00000000E+00  0.00000000E+00  0.00000000E+00
  0.00000000E+00  0.00000000E+00  0.00000000E+00
  0.00000000E+00  0.00000000E+00  0.00000000E+00
  0.00000000E+00  0.00000000E+00  0.00000000E+00
  0.00000000E+00  0.00000000E+00  0.00000000E+00
  0.00000000E+00  0.00000000E+00  0.00000000E+00
  0.00000000E+00  0.00000000E+00  0.00000000E+00
  0.00000000E+00  0.00000000E+00  0.00000000E+00
  0.00000000E+00  0.00000000E+00  0.00000000E+00
  0.00000000E+00  0.00000000E+00  0.00000000E+00
  0.00000000E+00  0.00000000E+00  0.00000000E+00
  0.00000000E+00  0.00000000E+00  0.00000000E+00
  0.00000000E+00  0.00000000E+00  0.00000000E+00
  0.00000000E+00  0.00000000E+00  0.00000000E+00
  0.00000000E+00  0.00000000E+00  0.00000000E+00
  0.00000000E+00  0.00000000E+00  0.00000000E+00
  0.00000000E+00  0.00000000E+00  0.00000000E+00
  0.00000000E+00  0.00000000E+00  0.00000000E+00
  0.00000000E+00  0.00000000E+00  0.00000000E+00
  0.00000000E+00  0.00000000E+00  0.00000000E+00
  0.00000000E+00  0.00000000E+00  0.00000000E+00
