Ba32 Ti32 O96
1.0
3.953265 0.000000 0.000000
0.000000 126.504485 0.000000
0.000000 0.000000 3.953265
Ba Ti O
32 32 96
Selective dynamics
direct
0.000000 0.000000 0.000000 F F F Ba
0.000000 0.031250 0.000000 F F F Ba
0.000000 0.062500 0.000000 F F F Ba
0.000000 0.093750 0.000000 F F F Ba
0.000000 0.125000 0.000000 F F F Ba
0.000000 0.156250 0.000000 F F F Ba
0.000000 0.187500 0.000000 F F F Ba
0.000000 0.218750 0.000000 F F F Ba
0.000000 0.250000 0.000000 F F F Ba
0.000000 0.281250 0.000000 F F F Ba
0.000000 0.312500 0.000000 F F F Ba
0.000000 0.343750 0.000000 F F F Ba
0.000000 0.375000 0.000000 F F F Ba
0.000000 0.406250 0.000000 F F F Ba
0.000000 0.437500 0.000000 F F F Ba
0.000000 0.468750 0.000000 F F F Ba
0.000000 0.500000 0.000000 F F F Ba
0.000000 0.531250 0.000000 F F F Ba
0.000000 0.562500 0.000000 F F F Ba
0.000000 0.593750 0.000000 F F F Ba
0.000000 0.625000 0.000000 F F F Ba
0.000000 0.656250 0.000000 F F F Ba
0.000000 0.687500 0.000000 F F F Ba
0.000000 0.718750 0.000000 F F F Ba
0.000000 0.750000 0.000000 F F F Ba
0.000000 0.781250 0.000000 F F F Ba
0.000000 0.812500 0.000000 F F F Ba
0.000000 0.843750 0.000000 F F F Ba
0.000000 0.875000 0.000000 F F F Ba
0.000000 0.906250 0.000000 F F F Ba
0.000000 0.937500 0.000000 F F F Ba
0.000000 0.968750 0.000000 F F F Ba
0.500000 0.015625 0.507648 T T T Ti
0.500000 0.046875 0.507648 T T T Ti
0.500000 0.078125 0.507648 T T T Ti
0.500000 0.109375 0.507648 T T T Ti
0.500000 0.140649 0.506883 T T T Ti
0.500000 0.171923 0.506118 T T T Ti
0.500000 0.203197 0.505353 T T T Ti
0.500000 0.234471 0.504589 T T T Ti
0.500000 0.265744 0.503824 T T T Ti
0.500000 0.297018 0.503059 T T T Ti
0.500000 0.328292 0.502294 T T T Ti
0.500000 0.359566 0.501530 T T T Ti
0.500000 0.390840 0.500765 T T T Ti
0.500000 0.422114 0.500000 T T T Ti
0.500000 0.453364 0.500000 T T T Ti
0.500000 0.484614 0.500000 T T T Ti
0.500000 0.515864 0.500000 T T T Ti
0.500000 0.547114 0.500000 T T T Ti
0.500000 0.578340 0.500765 T T T Ti
0.500000 0.609566 0.501530 T T T Ti
0.500000 0.640792 0.502294 T T T Ti
0.500000 0.672018 0.503059 T T T Ti
0.500000 0.703244 0.503824 T T T Ti
0.500000 0.734471 0.504589 T T T Ti
0.500000 0.765697 0.505353 T T T Ti
0.500000 0.796923 0.506118 T T T Ti
0.500000 0.828149 0.506883 T T T Ti
0.500000 0.859375 0.507648 T T T Ti
0.500000 0.890625 0.507648 T T T Ti
0.500000 0.921875 0.507648 T T T Ti
0.500000 0.953125 0.507648 T T T Ti
0.500000 0.984375 0.507648 T T T Ti
0.000000 0.015625 0.492092 T T T O
0.000000 0.046875 0.492092 T T T O
0.000000 0.078125 0.492092 T T T O
0.000000 0.109375 0.492092 T T T O
0.000000 0.140600 0.492883 T T T O
0.000000 0.171826 0.493674 T T T O
0.000000 0.203051 0.494465 T T T O
0.000000 0.234276 0.495255 T T T O
0.000000 0.265501 0.496046 T T T O
0.000000 0.296727 0.496837 T T T O
0.000000 0.327952 0.497628 T T T O
0.000000 0.359177 0.498418 T T T O
0.000000 0.390403 0.499209 T T T O
0.000000 0.421628 0.500000 T T T O
0.000000 0.452878 0.500000 T T T O
0.000000 0.484128 0.500000 T T T O
0.000000 0.515378 0.500000 T T T O
0.000000 0.546628 0.500000 T T T O
0.000000 0.577903 0.499209 T T T O
0.000000 0.609177 0.498418 T T T O
0.000000 0.640452 0.497628 T T T O
0.000000 0.671727 0.496837 T T T O
0.000000 0.703001 0.496046 T T T O
0.000000 0.734276 0.495255 T T T O
0.000000 0.765551 0.494465 T T T O
0.000000 0.796826 0.493674 T T T O
0.000000 0.828100 0.492883 T T T O
0.000000 0.859375 0.492092 T T T O
0.000000 0.890625 0.492092 T T T O
0.000000 0.921875 0.492092 T T T O
0.000000 0.953125 0.492092 T T T O
0.000000 0.984375 0.492092 T T T O
0.500000 0.000000 0.492092 T T T O
0.500000 0.031250 0.492092 T T T O
0.500000 0.062500 0.492092 T T T O
0.500000 0.093750 0.492092 T T T O
0.500000 0.124975 0.492883 T T T O
0.500000 0.156201 0.493674 T T T O
0.500000 0.187426 0.494465 T T T O
0.500000 0.218651 0.495255 T T T O
0.500000 0.249876 0.496046 T T T O
0.500000 0.281102 0.496837 T T T O
0.500000 0.312327 0.497628 T T T O
0.500000 0.343552 0.498418 T T T O
0.500000 0.374778 0.499209 T T T O
0.500000 0.406003 0.500000 T T T O
0.500000 0.437253 0.500000 T T T O
0.500000 0.468503 0.500000 T T T O
0.500000 0.499753 0.500000 T T T O
0.500000 0.531003 0.500000 T T T O
0.500000 0.562278 0.499209 T T T O
0.500000 0.593552 0.498418 T T T O
0.500000 0.624827 0.497628 T T T O
0.500000 0.656102 0.496837 T T T O
0.500000 0.687376 0.496046 T T T O
0.500000 0.718651 0.495255 T T T O
0.500000 0.749926 0.494465 T T T O
0.500000 0.781201 0.493674 T T T O
0.500000 0.812475 0.492883 T T T O
0.500000 0.843750 0.492092 T T T O
0.500000 0.875000 0.492092 T T T O
0.500000 0.906250 0.492092 T T T O
0.500000 0.937500 0.492092 T T T O
0.500000 0.968750 0.492092 T T T O
0.500000 0.015625 0.988961 T T T O
0.500000 0.046875 0.988961 T T T O
0.500000 0.078125 0.988961 T T T O
0.500000 0.109375 0.988961 T T T O
0.500000 0.140591 0.990065 T T T O
0.500000 0.171806 0.991169 T T T O
0.500000 0.203022 0.992273 T T T O
0.500000 0.234237 0.993377 T T T O
0.500000 0.265453 0.994481 T T T O
0.500000 0.296668 0.995585 T T T O
0.500000 0.327884 0.996688 T T T O
0.500000 0.359099 0.997792 T T T O
0.500000 0.390315 0.998896 T T T O
0.500000 0.421530 1.000000 T T T O
0.500000 0.452780 1.000000 T T T O
0.500000 0.484030 1.000000 T T T O
0.500000 0.515280 1.000000 T T T O
0.500000 0.546530 1.000000 T T T O
0.500000 0.577815 0.998896 T T T O
0.500000 0.609099 0.997792 T T T O
0.500000 0.640384 0.996688 T T T O
0.500000 0.671668 0.995585 T T T O
0.500000 0.702953 0.994481 T T T O
0.500000 0.734237 0.993377 T T T O
0.500000 0.765522 0.992273 T T T O
0.500000 0.796806 0.991169 T T T O
0.500000 0.828091 0.990065 T T T O
0.500000 0.859375 0.988961 T T T O
0.500000 0.890625 0.988961 T T T O
0.500000 0.921875 0.988961 T T T O
0.500000 0.953125 0.988961 T T T O
0.500000 0.984375 0.988961 T T T O

0.000000 0.000000 0.000000
0.000000 0.000000 0.000000
0.000000 0.000000 0.000000
0.000000 0.000000 0.000000
0.000000 0.000000 0.000000
0.000000 0.000000 0.000000
0.000000 0.000000 0.000000
0.000000 0.000000 0.000000
0.000000 0.000000 0.000000
0.000000 0.000000 0.000000
0.000000 0.000000 0.000000
0.000000 0.000000 0.000000
0.000000 0.000000 0.000000
0.000000 0.000000 0.000000
0.000000 0.000000 0.000000
0.000000 0.000000 0.000000
0.000000 0.000000 0.000000
0.000000 0.000000 0.000000
0.000000 0.000000 0.000000
0.000000 0.000000 0.000000
0.000000 0.000000 0.000000
0.000000 0.000000 0.000000
0.000000 0.000000 0.000000
0.000000 0.000000 0.000000
0.000000 0.000000 0.000000
0.000000 0.000000 0.000000
0.000000 0.000000 0.000000
0.000000 0.000000 0.000000
0.000000 0.000000 0.000000
0.000000 0.000000 0.000000
0.000000 0.000000 0.000000
0.000000 0.000000 0.000000
0.000000 0.000000 0.000000
0.000000 0.000000 0.000000
0.000000 0.000000 0.000000
0.000000 0.000000 0.000000
0.000000 0.000000 0.000000
0.000000 0.000000 0.000000
0.000000 0.000000 0.000000
0.000000 0.000000 0.000000
0.000000 0.000000 0.000000
0.000000 0.000000 0.000000
0.000000 0.000000 0.000000
0.000000 0.000000 0.000000
0.000000 0.000000 0.000000
0.000000 0.000000 0.000000
0.000000 0.000000 0.000000
0.000000 0.000000 0.000000
0.000000 0.000000 0.000000
0.000000 0.000000 0.000000
0.000000 0.000000 0.000000
0.000000 0.000000 0.000000
0.000000 0.000000 0.000000
0.000000 0.000000 0.000000
0.000000 0.000000 0.000000
0.000000 0.000000 0.000000
0.000000 0.000000 0.000000
0.000000 0.000000 0.000000
0.000000 0.000000 0.000000
0.000000 0.000000 0.000000
0.000000 0.000000 0.000000
0.000000 0.000000 0.000000
0.000000 0.000000 0.000000
0.000000 0.000000 0.000000
0.000000 0.000000 0.000000
0.000000 0.000000 0.000000
0.000000 0.000000 0.000000
0.000000 0.000000 0.000000
0.000000 0.000000 0.000000
0.000000 0.000000 0.000000
0.000000 0.000000 0.000000
0.000000 0.000000 0.000000
0.000000 0.000000 0.000000
0.000000 0.000000 0.000000
0.000000 0.000000 0.000000
0.000000 0.000000 0.000000
0.000000 0.000000 0.000000
0.000000 0.000000 0.000000
0.000000 0.000000 0.000000
0.000000 0.000000 0.000000
0.000000 0.000000 0.000000
0.000000 0.000000 0.000000
0.000000 0.000000 0.000000
0.000000 0.000000 0.000000
0.000000 0.000000 0.000000
0.000000 0.000000 0.000000
0.000000 0.000000 0.000000
0.000000 0.000000 0.000000
0.000000 0.000000 0.000000
0.000000 0.000000 0.000000
0.000000 0.000000 0.000000
0.000000 0.000000 0.000000
0.000000 0.000000 0.000000
0.000000 0.000000 0.000000
0.000000 0.000000 0.000000
0.000000 0.000000 0.000000
0.000000 0.000000 0.000000
0.000000 0.000000 0.000000
0.000000 0.000000 0.000000
0.000000 0.000000 0.000000
0.000000 0.000000 0.000000
0.000000 0.000000 0.000000
0.000000 0.000000 0.000000
0.000000 0.000000 0.000000
0.000000 0.000000 0.000000
0.000000 0.000000 0.000000
0.000000 0.000000 0.000000
0.000000 0.000000 0.000000
0.000000 0.000000 0.000000
0.000000 0.000000 0.000000
0.000000 0.000000 0.000000
0.000000 0.000000 0.000000
0.000000 0.000000 0.000000
0.000000 0.000000 0.000000
0.000000 0.000000 0.000000
0.000000 0.000000 0.000000
0.000000 0.000000 0.000000
0.000000 0.000000 0.000000
0.000000 0.000000 0.000000
0.000000 0.000000 0.000000
0.000000 0.000000 0.000000
0.000000 0.000000 0.000000
0.000000 0.000000 0.000000
0.000000 0.000000 0.000000
0.000000 0.000000 0.000000
0.000000 0.000000 0.000000
0.000000 0.000000 0.000000
0.000000 0.000000 0.000000
0.000000 0.000000 0.000000
0.000000 0.000000 0.000000
0.000000 0.000000 0.000000
0.000000 0.000000 0.000000
0.000000 0.000000 0.000000
0.000000 0.000000 0.000000
0.000000 0.000000 0.000000
0.000000 0.000000 0.000000
0.000000 0.000000 0.000000
0.000000 0.000000 0.000000
0.000000 0.000000 0.000000
0.000000 0.000000 0.000000
0.000000 0.000000 0.000000
0.000000 0.000000 0.000000
0.000000 0.000000 0.000000
0.000000 0.000000 0.000000
0.000000 0.000000 0.000000
0.000000 0.000000 0.000000
0.000000 0.000000 0.000000
0.000000 0.000000 0.000000
0.000000 0.000000 0.000000
0.000000 0.000000 0.000000
0.000000 0.000000 0.000000
0.000000 0.000000 0.000000
0.000000 0.000000 0.000000
0.000000 0.000000 0.000000
0.000000 0.000000 0.000000
0.000000 0.000000 0.000000
0.000000 0.000000 0.000000
0.000000 0.000000 0.000000
0.000000 0.000000 0.000000
0.000000 0.000000 0.000000
